!-Generator IDFEditor 1.50
!-Option SortedOrder

!-NOTE: All comments with '!-' are ignored by the IDFEditor and are generated automatically.
!-      Use '!' comments if they need to be retained when using the IDFEditor.


!-   ===========  ALL OBJECTS IN CLASS: VERSION ===========

Version,
    9.0;                     !- Version Identifier


!-   ===========  ALL OBJECTS IN CLASS: SIMULATIONCONTROL ===========

SimulationControl,
    Yes,                     !- Do Zone Sizing Calculation
    Yes,                     !- Do System Sizing Calculation
    Yes,                     !- Do Plant Sizing Calculation
    No,                      !- Run Simulation for Sizing Periods
    Yes;                     !- Run Simulation for Weather File Run Periods


!-   ===========  ALL OBJECTS IN CLASS: BUILDING ===========

Building,
    RosaBrasil,              !- Name
    178.861055,              !- North Axis {deg}
    City,                    !- Terrain
    0.4,                     !- Loads Convergence Tolerance Value
    0.4,                     !- Temperature Convergence Tolerance Value {deltaC}
    FullExterior,            !- Solar Distribution
    25,                      !- Maximum Number of Warmup Days
    ;                        !- Minimum Number of Warmup Days


!-   ===========  ALL OBJECTS IN CLASS: ZONEAIRCONTAMINANTBALANCE ===========

ZoneAirContaminantBalance,
    Yes,                     !- Carbon Dioxide Concentration
    CO Concentration;        !- Outdoor Carbon Dioxide Schedule Name


!-   ===========  ALL OBJECTS IN CLASS: TIMESTEP ===========

Timestep,
    4;                       !- Number of Timesteps per Hour


!-   ===========  ALL OBJECTS IN CLASS: SITE:LOCATION ===========

Site:Location,
    PassoFundo_RS,           !- Name
    -28.26,                  !- Latitude {deg}
    -52.4,                   !- Longitude {deg}
    -3.0,                    !- Time Zone {hr}
    686;                     !- Elevation {m}


!-   ===========  ALL OBJECTS IN CLASS: SIZINGPERIOD:DESIGNDAY ===========

SizingPeriod:DesignDay,
    PassoFundo_inverno_DB,   !- Name
    6,                       !- Month
    5,                       !- Day of Month
    WinterDesignDay,         !- Day Type
    21.8,                    !- Maximum Dry-Bulb Temperature {C}
    7.2,                     !- Daily Dry-Bulb Temperature Range {deltaC}
    DefaultMultipliers,      !- Dry-Bulb Temperature Range Modifier Type
    ,                        !- Dry-Bulb Temperature Range Modifier Day Schedule Name
    DewPoint,                !- Humidity Condition Type
    16.8,                    !- Wetbulb or DewPoint at Maximum Dry-Bulb {C}
    ,                        !- Humidity Condition Day Schedule Name
    ,                        !- Humidity Ratio at Maximum Dry-Bulb {kgWater/kgDryAir}
    ,                        !- Enthalpy at Maximum Dry-Bulb {J/kg}
    ,                        !- Daily Wet-Bulb Temperature Range {deltaC}
    100034,                  !- Barometric Pressure {Pa}
    6.9,                     !- Wind Speed {m/s}
    45,                      !- Wind Direction {deg}
    No,                      !- Rain Indicator
    No,                      !- Snow Indicator
    No,                      !- Daylight Saving Time Indicator
    ASHRAEClearSky,          !- Solar Model Indicator
    ,                        !- Beam Solar Day Schedule Name
    ,                        !- Diffuse Solar Day Schedule Name
    ,                        !- ASHRAE Clear Sky Optical Depth for Beam Irradiance (taub) {dimensionless}
    ,                        !- ASHRAE Clear Sky Optical Depth for Diffuse Irradiance (taud) {dimensionless}
    0;                       !- Sky Clearness

SizingPeriod:DesignDay,
    PassoFundo_verao_DB,     !- Name
    1,                       !- Month
    10,                      !- Day of Month
    SummerDesignDay,         !- Day Type
    36.1,                    !- Maximum Dry-Bulb Temperature {C}
    8.7,                     !- Daily Dry-Bulb Temperature Range {deltaC}
    DefaultMultipliers,      !- Dry-Bulb Temperature Range Modifier Type
    ,                        !- Dry-Bulb Temperature Range Modifier Day Schedule Name
    DewPoint,                !- Humidity Condition Type
    25.5,                    !- Wetbulb or DewPoint at Maximum Dry-Bulb {C}
    ,                        !- Humidity Condition Day Schedule Name
    ,                        !- Humidity Ratio at Maximum Dry-Bulb {kgWater/kgDryAir}
    ,                        !- Enthalpy at Maximum Dry-Bulb {J/kg}
    ,                        !- Daily Wet-Bulb Temperature Range {deltaC}
    100034,                  !- Barometric Pressure {Pa}
    8.3,                     !- Wind Speed {m/s}
    90,                      !- Wind Direction {deg}
    No,                      !- Rain Indicator
    No,                      !- Snow Indicator
    No,                      !- Daylight Saving Time Indicator
    ASHRAEClearSky,          !- Solar Model Indicator
    ,                        !- Beam Solar Day Schedule Name
    ,                        !- Diffuse Solar Day Schedule Name
    ,                        !- ASHRAE Clear Sky Optical Depth for Beam Irradiance (taub) {dimensionless}
    ,                        !- ASHRAE Clear Sky Optical Depth for Diffuse Irradiance (taud) {dimensionless}
    1;                       !- Sky Clearness


!-   ===========  ALL OBJECTS IN CLASS: RUNPERIOD ===========

RunPeriod,
    ,                        !- Name
    1,                       !- Begin Month
    1,                       !- Begin Day of Month
    ,                        !- Begin Year
    12,                      !- End Month
    31,                      !- End Day of Month
    ,                        !- End Year
    ,                        !- Day of Week for Start Day
    Yes,                     !- Use Weather File Holidays and Special Days
    Yes,                     !- Use Weather File Daylight Saving Period
    No,                      !- Apply Weekend Holiday Rule
    Yes,                     !- Use Weather File Rain Indicators
    Yes,                     !- Use Weather File Snow Indicators
    No;                      !- Treat Weather as Actual


!-   ===========  ALL OBJECTS IN CLASS: RUNPERIODCONTROL:SPECIALDAYS ===========

RunPeriodControl:SpecialDays,
    Conf Universal,          !- Name
    January 1,               !- Start Date
    1,                       !- Duration {days}
    Holiday;                 !- Special Day Type

RunPeriodControl:SpecialDays,
    Carnaval,                !- Name
    3rd Tuesday in February, !- Start Date
    1,                       !- Duration {days}
    Holiday;                 !- Special Day Type

RunPeriodControl:SpecialDays,
    Sexta-Feira Santa,       !- Name
    1st Friday in April,     !- Start Date
    1,                       !- Duration {days}
    Holiday;                 !- Special Day Type

RunPeriodControl:SpecialDays,
    Tiradentes,              !- Name
    April 21,                !- Start Date
    1,                       !- Duration {days}
    Holiday;                 !- Special Day Type

RunPeriodControl:SpecialDays,
    Dia do Trabalho,         !- Name
    May 1,                   !- Start Date
    1,                       !- Duration {days}
    Holiday;                 !- Special Day Type

RunPeriodControl:SpecialDays,
    Corpus Christi,          !- Name
    1st Thursday in June,    !- Start Date
    1,                       !- Duration {days}
    Holiday;                 !- Special Day Type

RunPeriodControl:SpecialDays,
    Independencia,           !- Name
    September 7,             !- Start Date
    1,                       !- Duration {days}
    Holiday;                 !- Special Day Type

RunPeriodControl:SpecialDays,
    Nossa Senhora Aparecida, !- Name
    October 12,              !- Start Date
    1,                       !- Duration {days}
    Holiday;                 !- Special Day Type

RunPeriodControl:SpecialDays,
    Finados,                 !- Name
    November 2,              !- Start Date
    1,                       !- Duration {days}
    Holiday;                 !- Special Day Type

RunPeriodControl:SpecialDays,
    Proc Republica,          !- Name
    November 15,             !- Start Date
    1,                       !- Duration {days}
    Holiday;                 !- Special Day Type

RunPeriodControl:SpecialDays,
    Natal,                   !- Name
    December 25,             !- Start Date
    1,                       !- Duration {days}
    Holiday;                 !- Special Day Type

RunPeriodControl:SpecialDays,
    Dia do Gaucho,           !- Name
    September 20,            !- Start Date
    1,                       !- Duration {days}
    Holiday;                 !- Special Day Type


!-   ===========  ALL OBJECTS IN CLASS: RUNPERIODCONTROL:DAYLIGHTSAVINGTIME ===========

RunPeriodControl:DaylightSavingTime,
    2nd Sunday in March,     !- Start Date
    1st Sunday in November;  !- End Date


!-   ===========  ALL OBJECTS IN CLASS: SITE:GROUNDTEMPERATURE:BUILDINGSURFACE ===========

Site:GroundTemperature:BuildingSurface,
    23.3,                    !- January Ground Temperature {C}
    23.3,                    !- February Ground Temperature {C}
    23.3,                    !- March Ground Temperature {C}
    22.6,                    !- April Ground Temperature {C}
    21.6,                    !- May Ground Temperature {C}
    20.7,                    !- June Ground Temperature {C}
    20.5,                    !- July Ground Temperature {C}
    21.2,                    !- August Ground Temperature {C}
    22.4,                    !- September Ground Temperature {C}
    22.2,                    !- October Ground Temperature {C}
    23.1,                    !- November Ground Temperature {C}
    23.3;                    !- December Ground Temperature {C}


!-   ===========  ALL OBJECTS IN CLASS: SCHEDULETYPELIMITS ===========

ScheduleTypeLimits,
    Any Number;              !- Name

ScheduleTypeLimits,
    Fraction,                !- Name
    0,                       !- Lower Limit Value
    1,                       !- Upper Limit Value
    CONTINUOUS;              !- Numeric Type

ScheduleTypeLimits,
    Temperature,             !- Name
    -60,                     !- Lower Limit Value
    200,                     !- Upper Limit Value
    CONTINUOUS;              !- Numeric Type

ScheduleTypeLimits,
    On/Off,                  !- Name
    0,                       !- Lower Limit Value
    1,                       !- Upper Limit Value
    DISCRETE;                !- Numeric Type

ScheduleTypeLimits,
    Control Type,            !- Name
    0,                       !- Lower Limit Value
    4,                       !- Upper Limit Value
    DISCRETE;                !- Numeric Type

ScheduleTypeLimits,
    Humidity,                !- Name
    10,                      !- Lower Limit Value
    90,                      !- Upper Limit Value
    CONTINUOUS;              !- Numeric Type

ScheduleTypeLimits,
    Number;                  !- Name


!-   ===========  ALL OBJECTS IN CLASS: SCHEDULE:COMPACT ===========

Schedule:Compact,
    Always On,               !- Name
    On/Off,                  !- Schedule Type Limits Name
    Through: 12/31,          !- Field 1
    For: AllDays,            !- Field 2
    Until: 24:00,            !- Field 3
    1.0;                     !- Field 4

Schedule:Compact,
    Always Off,              !- Name
    On/Off,                  !- Schedule Type Limits Name
    Through: 12/31,          !- Field 1
    For: AllDays,            !- Field 2
    Until: 24:00,            !- Field 3
    0.0;                     !- Field 4

Schedule:Compact,
    TLB Occupation Schedule, !- Name
    Fraction,                !- Schedule Type Limits Name
    Through: 12/31,          !- Field 1
    For: AllDays,            !- Field 2
    Until: 08:00,            !- Field 3
    1,                       !- Field 4
    Until: 14:00,            !- Field 5
    0,                       !- Field 6
    Until: 18:00,            !- Field 7
    .5,                      !- Field 8
    Until: 24:00,            !- Field 9
    1;                       !- Field 10

Schedule:Compact,
    TLB Ilumination Schedule,!- Name
    Fraction,                !- Schedule Type Limits Name
    Through: 12/31,          !- Field 1
    For: AllDays,            !- Field 2
    Until: 06:00,            !- Field 3
    0,                       !- Field 4
    Until: 08:00,            !- Field 5
    1,                       !- Field 6
    Until: 16:00,            !- Field 7
    0,                       !- Field 8
    Until: 24:00,            !- Field 9
    1;                       !- Field 10

Schedule:Compact,
    TBL Activities,          !- Name
    Any Number,              !- Schedule Type Limits Name
    Through: 12/31,          !- Field 1
    For: AllDays,            !- Field 2
    Until: 08:00,            !- Field 3
    81,                      !- Field 4
    Until: 14:00,            !- Field 5
    0,                       !- Field 6
    Until: 22:00,            !- Field 7
    108,                     !- Field 8
    Until: 24:00,            !- Field 9
    81;                      !- Field 10

Schedule:Compact,
    TLB INI-R Equipments,    !- Name
    Fraction,                !- Schedule Type Limits Name
    Through: 12/31,          !- Field 1
    For: AllDays,            !- Field 2
    Until: 14:00,            !- Field 3
    0,                       !- Field 4
    Until: 22:00,            !- Field 5
    1,                       !- Field 6
    Until: 24:00,            !- Field 7
    0;                       !- Field 8

Schedule:Compact,
    CO Concentration,        !- Name
    Any Number,              !- Schedule Type Limits Name
    Through: 12/31,          !- Field 1
    For: AllDays,            !- Field 2
    Until: 24:00,            !- Field 3
    400;                     !- Field 4

Schedule:Compact,
    VN_19,                   !- Name
    Any Number,              !- Schedule Type Limits Name
    Through: 12/31,          !- Field 1
    For: AllDays,            !- Field 2
    Until: 24:00,            !- Field 3
    19;                      !- Field 4


!-   ===========  ALL OBJECTS IN CLASS: MATERIAL ===========

Material,
    Argamassa piso,          !- Name
    Smooth,                  !- Roughness
    0.02,                    !- Thickness {m}
    1.15,                    !- Conductivity {W/m-K}
    1800,                    !- Density {kg/m3}
    1000,                    !- Specific Heat {J/kg-K}
    0.85,                    !- Thermal Absorptance
    0.3,                     !- Solar Absorptance
    0.3;                     !- Visible Absorptance

Material,
    Fibercement tile,        !- Name
    Smooth,                  !- Roughness
    0.006,                   !- Thickness {m}
    0.65,                    !- Conductivity {W/m-K}
    1700,                    !- Density {kg/m3}
    840,                     !- Specific Heat {J/kg-K}
    0.9,                     !- Thermal Absorptance
    0.65,                    !- Solar Absorptance
    0.6;                     !- Visible Absorptance

Material,
    Ceramica equiv externa,  !- Name
    MediumSmooth,            !- Roughness
    0.18,                    !- Thickness {m}
    0.9,                     !- Conductivity {W/m-K}
    785,                     !- Density {kg/m3}
    920;                     !- Specific Heat {J/kg-K}

Material,
    Ext mortar,              !- Name
    Smooth,                  !- Roughness
    0.02,                    !- Thickness {m}
    1.15,                    !- Conductivity {W/m-K}
    1800,                    !- Density {kg/m3}
    1000,                    !- Specific Heat {J/kg-K}
    0.9,                     !- Thermal Absorptance
    0.58,                    !- Solar Absorptance
    0.2;                     !- Visible Absorptance

Material,
    Revestimento Ceramico 10mm,  !- Name
    MediumSmooth,            !- Roughness
    0.01,                    !- Thickness {m}
    1.3,                     !- Conductivity {W/m-K}
    2300,                    !- Density {kg/m3}
    965,                     !- Specific Heat {J/kg-K}
    0.9,                     !- Thermal Absorptance
    0.2,                     !- Solar Absorptance
    0.2;                     !- Visible Absorptance

Material,
    Ceramica equiv interna,  !- Name
    MediumSmooth,            !- Roughness
    0.18,                    !- Thickness {m}
    0.9,                     !- Conductivity {W/m-K}
    785,                     !- Density {kg/m3}
    920;                     !- Specific Heat {J/kg-K}

Material,
    Argamassa reb int,       !- Name
    Smooth,                  !- Roughness
    0.015,                   !- Thickness {m}
    1.15,                    !- Conductivity {W/m-K}
    1800,                    !- Density {kg/m3}
    1000,                    !- Specific Heat {J/kg-K}
    0.9,                     !- Thermal Absorptance
    0.2,                     !- Solar Absorptance
    0.2;                     !- Visible Absorptance

Material,
    Concreto laje,           !- Name
    MediumRough,             !- Roughness
    0.1,                     !- Thickness {m}
    1.75,                    !- Conductivity {W/m-K}
    2200,                    !- Density {kg/m3}
    1000;                    !- Specific Heat {J/kg-K}

Material,
    Porta exterior,          !- Name
    Smooth,                  !- Roughness
    0.05,                    !- Thickness {m}
    0.2,                     !- Conductivity {W/m-K}
    850,                     !- Density {kg/m3}
    2300,                    !- Specific Heat {J/kg-K}
    0.9,                     !- Thermal Absorptance
    0.2,                     !- Solar Absorptance
    0.2;                     !- Visible Absorptance

Material,
    Placa_cimenticia,        !- Name
    MediumRough,             !- Roughness
    0.01,                    !- Thickness {m}
    0.95,                    !- Conductivity {W/m-K}
    2200,                    !- Density {kg/m3}
    840,                     !- Specific Heat {J/kg-K}
    0.9,                     !- Thermal Absorptance
    0.2,                     !- Solar Absorptance
    0.2;                     !- Visible Absorptance

Material,
    Rockwool_north,          !- Name
    MediumRough,             !- Roughness
    0.15,                    !- Thickness {m}
    0.045,                   !- Conductivity {W/m-K}
    200,                     !- Density {kg/m3}
    750,                     !- Specific Heat {J/kg-K}
    0.9,                     !- Thermal Absorptance
    0.2,                     !- Solar Absorptance
    0.2;                     !- Visible Absorptance

Material,
    Rockwool_south,          !- Name
    MediumRough,             !- Roughness
    0.15,                    !- Thickness {m}
    0.045,                   !- Conductivity {W/m-K}
    200,                     !- Density {kg/m3}
    750,                     !- Specific Heat {J/kg-K}
    0.9,                     !- Thermal Absorptance
    0.2,                     !- Solar Absorptance
    0.2;                     !- Visible Absorptance

Material,
    Rockwool_west,           !- Name
    MediumRough,             !- Roughness
    0.15,                    !- Thickness {m}
    0.045,                   !- Conductivity {W/m-K}
    200,                     !- Density {kg/m3}
    750,                     !- Specific Heat {J/kg-K}
    0.9,                     !- Thermal Absorptance
    0.2,                     !- Solar Absorptance
    0.2;                     !- Visible Absorptance

Material,
    Rockwool_east,           !- Name
    MediumRough,             !- Roughness
    0.15,                    !- Thickness {m}
    0.045,                   !- Conductivity {W/m-K}
    200,                     !- Density {kg/m3}
    750,                     !- Specific Heat {J/kg-K}
    0.9,                     !- Thermal Absorptance
    0.2,                     !- Solar Absorptance
    0.2;                     !- Visible Absorptance

Material,
    Rockwool_roof,           !- Name
    MediumRough,             !- Roughness
    0.15,                    !- Thickness {m}
    0.045,                   !- Conductivity {W/m-K}
    200,                     !- Density {kg/m3}
    750,                     !- Specific Heat {J/kg-K}
    0.9,                     !- Thermal Absorptance
    0.2,                     !- Solar Absorptance
    0.2;                     !- Visible Absorptance


!-   ===========  ALL OBJECTS IN CLASS: MATERIAL:AIRGAP ===========

Material:AirGap,
    F04 Wall air space resistance,  !- Name
    0.15;                    !- Thermal Resistance {m2-K/W}

Material:AirGap,
    F05 Ceiling air space resistance,  !- Name
    0.18;                    !- Thermal Resistance {m2-K/W}

Material:AirGap,
    Ar ascendente maior 5,   !- Name
    0.14;                    !- Thermal Resistance {m2-K/W}

Material:AirGap,
    AR_5cm_HOR,              !- Name
    0.16;                    !- Thermal Resistance {m2-K/W}

Material:AirGap,
    AR_5cm_DESC,             !- Name
    0.21;                    !- Thermal Resistance {m2-K/W}

Material:AirGap,
    AR_cobertura,            !- Name
    0.14;                    !- Thermal Resistance {m2-K/W}


!-   ===========  ALL OBJECTS IN CLASS: WINDOWMATERIAL:GLAZING ===========

WindowMaterial:Glazing,
    Clear 3mm,               !- Name
    SpectralAverage,         !- Optical Data Type
    ,                        !- Window Glass Spectral Data Set Name
    0.003,                   !- Thickness {m}
    0.837,                   !- Solar Transmittance at Normal Incidence
    0.075,                   !- Front Side Solar Reflectance at Normal Incidence
    0.075,                   !- Back Side Solar Reflectance at Normal Incidence
    0.898,                   !- Visible Transmittance at Normal Incidence
    0.081,                   !- Front Side Visible Reflectance at Normal Incidence
    0.081,                   !- Back Side Visible Reflectance at Normal Incidence
    0,                       !- Infrared Transmittance at Normal Incidence
    0.84,                    !- Front Side Infrared Hemispherical Emissivity
    0.84,                    !- Back Side Infrared Hemispherical Emissivity
    0.9;                     !- Conductivity {W/m-K}


!-   ===========  ALL OBJECTS IN CLASS: WINDOWMATERIAL:GAS ===========

WindowMaterial:Gas,
    Air 13mm,                !- Name
    Air,                     !- Gas Type
    0.0127;                  !- Thickness {m}


!-   ===========  ALL OBJECTS IN CLASS: CONSTRUCTION ===========

Construction,
    Exterior Floor,          !- Name
    Revestimento Ceramico 10mm,  !- Outside Layer
    Argamassa piso,          !- Layer 2
    Concreto laje;           !- Layer 3

Construction,
    Interior Wall,           !- Name
    Argamassa reb int,       !- Outside Layer
    Ceramica equiv interna,  !- Layer 2
    Argamassa reb int;       !- Layer 3

Construction,
    Exterior Roof,           !- Name
    Fibercement tile,        !- Outside Layer
    AR_5cm_DESC,             !- Layer 2
    Rockwool_roof,           !- Layer 3
    Concreto laje,           !- Layer 4
    Argamassa reb int;       !- Layer 5

Construction,
    Exterior Window,         !- Name
    Clear 3mm;               !- Outside Layer

Construction,
    Exterior Door,           !- Name
    Porta exterior;          !- Outside Layer

Construction,
    Interior Floor,          !- Name
    Revestimento Ceramico 10mm,  !- Outside Layer
    Argamassa piso,          !- Layer 2
    Concreto laje,           !- Layer 3
    Argamassa reb int;       !- Layer 4

Construction,
    Interior Ceiling,        !- Name
    Argamassa reb int,       !- Outside Layer
    Concreto laje,           !- Layer 2
    Argamassa piso,          !- Layer 3
    Revestimento Ceramico 10mm;  !- Layer 4

Construction,
    Exterior Wall North,     !- Name
    Ext mortar,              !- Outside Layer
    Placa_cimenticia,        !- Layer 2
    Rockwool_north,          !- Layer 3
    Ceramica equiv interna,  !- Layer 4
    Argamassa reb int;       !- Layer 5

Construction,
    Exterior Wall South,     !- Name
    Ext mortar,              !- Outside Layer
    Placa_cimenticia,        !- Layer 2
    Rockwool_north,          !- Layer 3
    Ceramica equiv interna,  !- Layer 4
    Argamassa reb int;       !- Layer 5

Construction,
    Exterior Wall West,      !- Name
    Ext mortar,              !- Outside Layer
    Placa_cimenticia,        !- Layer 2
    Rockwool_north,          !- Layer 3
    Ceramica equiv interna,  !- Layer 4
    Argamassa reb int;       !- Layer 5

Construction,
    Exterior Wall East,      !- Name
    Ext mortar,              !- Outside Layer
    Placa_cimenticia,        !- Layer 2
    Rockwool_north,          !- Layer 3
    Ceramica equiv interna,  !- Layer 4
    Argamassa reb int;       !- Layer 5


!-   ===========  ALL OBJECTS IN CLASS: GLOBALGEOMETRYRULES ===========

GlobalGeometryRules,
    UpperLeftCorner,         !- Starting Vertex Position
    Counterclockwise,        !- Vertex Entry Direction
    Relative;                !- Coordinate System


!-   ===========  ALL OBJECTS IN CLASS: ZONE ===========

Zone,
    APTO01_P1,               !- Name
    0.0,                     !- Direction of Relative North {deg}
    0.0,                     !- X Origin {m}
    0.0,                     !- Y Origin {m}
    0.0,                     !- Z Origin {m}
    ,                        !- Type
    1;                       !- Multiplier

Zone,
    CIRCUL01_P1,             !- Name
    0.0,                     !- Direction of Relative North {deg}
    0.0,                     !- X Origin {m}
    0.0,                     !- Y Origin {m}
    0.0,                     !- Z Origin {m}
    ,                        !- Type
    1;                       !- Multiplier

Zone,
    APTO02_P1,               !- Name
    0.0,                     !- Direction of Relative North {deg}
    0.0,                     !- X Origin {m}
    0.0,                     !- Y Origin {m}
    0.0,                     !- Z Origin {m}
    ,                        !- Type
    1;                       !- Multiplier

Zone,
    APTO03_P1,               !- Name
    0.0,                     !- Direction of Relative North {deg}
    0.0,                     !- X Origin {m}
    0.0,                     !- Y Origin {m}
    0.0,                     !- Z Origin {m}
    ,                        !- Type
    1;                       !- Multiplier

Zone,
    CIRCUL02_P1,             !- Name
    0.0,                     !- Direction of Relative North {deg}
    ,                        !- X Origin {m}
    0.0,                     !- Y Origin {m}
    0.0,                     !- Z Origin {m}
    ,                        !- Type
    1;                       !- Multiplier

Zone,
    APTO04_P1,               !- Name
    0.0,                     !- Direction of Relative North {deg}
    0.0,                     !- X Origin {m}
    0.0,                     !- Y Origin {m}
    0.0,                     !- Z Origin {m}
    ,                        !- Type
    1;                       !- Multiplier

Zone,
    CIRCUL02_P2,             !- Name
    0.0,                     !- Direction of Relative North {deg}
    0.0,                     !- X Origin {m}
    0.0,                     !- Y Origin {m}
    0.0,                     !- Z Origin {m}
    ,                        !- Type
    1;                       !- Multiplier

Zone,
    APTO02_P2,               !- Name
    0.0,                     !- Direction of Relative North {deg}
    0.0,                     !- X Origin {m}
    0.0,                     !- Y Origin {m}
    0.0,                     !- Z Origin {m}
    ,                        !- Type
    1;                       !- Multiplier

Zone,
    APTO04_P2,               !- Name
    0.0,                     !- Direction of Relative North {deg}
    0.0,                     !- X Origin {m}
    0.0,                     !- Y Origin {m}
    0.0,                     !- Z Origin {m}
    ,                        !- Type
    1;                       !- Multiplier

Zone,
    APTO01_P2,               !- Name
    0.0,                     !- Direction of Relative North {deg}
    0.0,                     !- X Origin {m}
    0.0,                     !- Y Origin {m}
    0.0,                     !- Z Origin {m}
    ,                        !- Type
    1;                       !- Multiplier

Zone,
    APTO03_P2,               !- Name
    0.0,                     !- Direction of Relative North {deg}
    0.0,                     !- X Origin {m}
    0.0,                     !- Y Origin {m}
    0.0,                     !- Z Origin {m}
    ,                        !- Type
    1;                       !- Multiplier

Zone,
    CIRCUL01_P2,             !- Name
    0.0,                     !- Direction of Relative North {deg}
    0.0,                     !- X Origin {m}
    0.0,                     !- Y Origin {m}
    0.0,                     !- Z Origin {m}
    ,                        !- Type
    1;                       !- Multiplier

Zone,
    APTO04_P3,               !- Name
    0.0,                     !- Direction of Relative North {deg}
    0.0,                     !- X Origin {m}
    0.0,                     !- Y Origin {m}
    0.0,                     !- Z Origin {m}
    ,                        !- Type
    1;                       !- Multiplier

Zone,
    CIRCUL01_P3,             !- Name
    0.0,                     !- Direction of Relative North {deg}
    0.0,                     !- X Origin {m}
    0.0,                     !- Y Origin {m}
    0.0,                     !- Z Origin {m}
    ,                        !- Type
    1;                       !- Multiplier

Zone,
    CIRCUL02_P3,             !- Name
    0.0,                     !- Direction of Relative North {deg}
    0.0,                     !- X Origin {m}
    0.0,                     !- Y Origin {m}
    0.0,                     !- Z Origin {m}
    ,                        !- Type
    1;                       !- Multiplier

Zone,
    APTO01_P3,               !- Name
    0.0,                     !- Direction of Relative North {deg}
    0.0,                     !- X Origin {m}
    0.0,                     !- Y Origin {m}
    0.0,                     !- Z Origin {m}
    ,                        !- Type
    1;                       !- Multiplier

Zone,
    APTO02_P3,               !- Name
    0.0,                     !- Direction of Relative North {deg}
    0.0,                     !- X Origin {m}
    0.0,                     !- Y Origin {m}
    0.0,                     !- Z Origin {m}
    ,                        !- Type
    1;                       !- Multiplier

Zone,
    APTO03_P3,               !- Name
    0.0,                     !- Direction of Relative North {deg}
    0.0,                     !- X Origin {m}
    0.0,                     !- Y Origin {m}
    0.0,                     !- Z Origin {m}
    ,                        !- Type
    1;                       !- Multiplier

Zone,
    CIRCUL02_P4,             !- Name
    0.0,                     !- Direction of Relative North {deg}
    0.0,                     !- X Origin {m}
    0.0,                     !- Y Origin {m}
    0.0,                     !- Z Origin {m}
    ,                        !- Type
    1;                       !- Multiplier

Zone,
    APTO03_P4,               !- Name
    0.0,                     !- Direction of Relative North {deg}
    0.0,                     !- X Origin {m}
    0.0,                     !- Y Origin {m}
    0.0,                     !- Z Origin {m}
    ,                        !- Type
    1;                       !- Multiplier

Zone,
    APTO02_P4,               !- Name
    0.0,                     !- Direction of Relative North {deg}
    0.0,                     !- X Origin {m}
    0.0,                     !- Y Origin {m}
    0.0,                     !- Z Origin {m}
    ,                        !- Type
    1;                       !- Multiplier

Zone,
    APTO04_P4,               !- Name
    0.0,                     !- Direction of Relative North {deg}
    0.0,                     !- X Origin {m}
    0.0,                     !- Y Origin {m}
    0.0,                     !- Z Origin {m}
    ,                        !- Type
    1;                       !- Multiplier

Zone,
    APTO01_P4,               !- Name
    0.0,                     !- Direction of Relative North {deg}
    0.0,                     !- X Origin {m}
    0.0,                     !- Y Origin {m}
    0.0,                     !- Z Origin {m}
    ,                        !- Type
    1;                       !- Multiplier

Zone,
    CIRCUL01_P4,             !- Name
    0.0,                     !- Direction of Relative North {deg}
    0.0,                     !- X Origin {m}
    0.0,                     !- Y Origin {m}
    0.0,                     !- Z Origin {m}
    ,                        !- Type
    1;                       !- Multiplier

Zone,
    APTO01_P5,               !- Name
    0.0,                     !- Direction of Relative North {deg}
    0.0,                     !- X Origin {m}
    0.0,                     !- Y Origin {m}
    0.0,                     !- Z Origin {m}
    ,                        !- Type
    1;                       !- Multiplier

Zone,
    APTO02_P5,               !- Name
    0.0,                     !- Direction of Relative North {deg}
    0.0,                     !- X Origin {m}
    0.0,                     !- Y Origin {m}
    0.0,                     !- Z Origin {m}
    ,                        !- Type
    1;                       !- Multiplier

Zone,
    CIRCUL01_P5,             !- Name
    0.0,                     !- Direction of Relative North {deg}
    0.0,                     !- X Origin {m}
    0.0,                     !- Y Origin {m}
    0.0,                     !- Z Origin {m}
    ,                        !- Type
    1;                       !- Multiplier

Zone,
    CIRCUL02_P5,             !- Name
    0.0,                     !- Direction of Relative North {deg}
    ,                        !- X Origin {m}
    0.0,                     !- Y Origin {m}
    0.0,                     !- Z Origin {m}
    ,                        !- Type
    1;                       !- Multiplier

Zone,
    APTO03_P5,               !- Name
    0.0,                     !- Direction of Relative North {deg}
    0.0,                     !- X Origin {m}
    0.0,                     !- Y Origin {m}
    0.0,                     !- Z Origin {m}
    ,                        !- Type
    1;                       !- Multiplier

Zone,
    APTO04_P5,               !- Name
    0.0,                     !- Direction of Relative North {deg}
    0.0,                     !- X Origin {m}
    0.0,                     !- Y Origin {m}
    0.0,                     !- Z Origin {m}
    ,                        !- Type
    1;                       !- Multiplier


!-   ===========  ALL OBJECTS IN CLASS: ZONELIST ===========

ZoneList,
    TodosAps,                !- Name
    APTO01_P1,               !- Zone 1 Name
    APTO01_P2,               !- Zone 2 Name
    APTO01_P3,               !- Zone 3 Name
    APTO01_P4,               !- Zone 4 Name
    APTO01_P5,               !- Zone 5 Name
    APTO02_P1,               !- Zone 6 Name
    APTO02_P2,               !- Zone 7 Name
    APTO02_P3,               !- Zone 8 Name
    APTO02_P4,               !- Zone 9 Name
    APTO02_P5,               !- Zone 10 Name
    APTO03_P1,               !- Zone 11 Name
    APTO03_P2,               !- Zone 12 Name
    APTO03_P3,               !- Zone 13 Name
    APTO03_P4,               !- Zone 14 Name
    APTO03_P5,               !- Zone 15 Name
    APTO04_P1,               !- Zone 16 Name
    APTO04_P2,               !- Zone 17 Name
    APTO04_P3,               !- Zone 18 Name
    APTO04_P4,               !- Zone 19 Name
    APTO04_P5;               !- Zone 20 Name


!-   ===========  ALL OBJECTS IN CLASS: BUILDINGSURFACE:DETAILED ===========

BuildingSurface:Detailed,
    6C39DE,                  !- Name
    Floor,                   !- Surface Type
    Exterior Floor,          !- Construction Name
    APTO01_P1,               !- Zone Name
    Ground,                  !- Outside Boundary Condition
    ,                        !- Outside Boundary Condition Object
    NoSun,                   !- Sun Exposure
    NoWind,                  !- Wind Exposure
    ,                        !- View Factor to Ground
    4,                       !- Number of Vertices
    -6.800000000000,         !- Vertex 1 X-coordinate {m}
    -6.500000000000,         !- Vertex 1 Y-coordinate {m}
    0.000000000000,          !- Vertex 1 Z-coordinate {m}
    -6.800000000000,         !- Vertex 2 X-coordinate {m}
    0.000000000000,          !- Vertex 2 Y-coordinate {m}
    0.000000000000,          !- Vertex 2 Z-coordinate {m}
    0.000000000000,          !- Vertex 3 X-coordinate {m}
    0.000000000000,          !- Vertex 3 Y-coordinate {m}
    0.000000000000,          !- Vertex 3 Z-coordinate {m}
    0.000000000000,          !- Vertex 4 X-coordinate {m}
    -6.500000000000,         !- Vertex 4 Y-coordinate {m}
    0.000000000000;          !- Vertex 4 Z-coordinate {m}

BuildingSurface:Detailed,
    D6319A,                  !- Name
    Ceiling,                 !- Surface Type
    Interior Ceiling,        !- Construction Name
    APTO01_P1,               !- Zone Name
    Surface,                 !- Outside Boundary Condition
    DEBB26,                  !- Outside Boundary Condition Object
    NoSun,                   !- Sun Exposure
    NoWind,                  !- Wind Exposure
    ,                        !- View Factor to Ground
    4,                       !- Number of Vertices
    0.000000000000,          !- Vertex 1 X-coordinate {m}
    -6.500000000000,         !- Vertex 1 Y-coordinate {m}
    2.850000000000,          !- Vertex 1 Z-coordinate {m}
    0.000000000000,          !- Vertex 2 X-coordinate {m}
    0.000000000000,          !- Vertex 2 Y-coordinate {m}
    2.850000000000,          !- Vertex 2 Z-coordinate {m}
    -6.800000000000,         !- Vertex 3 X-coordinate {m}
    0.000000000000,          !- Vertex 3 Y-coordinate {m}
    2.850000000000,          !- Vertex 3 Z-coordinate {m}
    -6.800000000000,         !- Vertex 4 X-coordinate {m}
    -6.500000000000,         !- Vertex 4 Y-coordinate {m}
    2.850000000000;          !- Vertex 4 Z-coordinate {m}

BuildingSurface:Detailed,
    CEF763,                  !- Name
    Wall,                    !- Surface Type
    Exterior Wall South,     !- Construction Name
    APTO01_P1,               !- Zone Name
    Outdoors,                !- Outside Boundary Condition
    ,                        !- Outside Boundary Condition Object
    SunExposed,              !- Sun Exposure
    WindExposed,             !- Wind Exposure
    ,                        !- View Factor to Ground
    4,                       !- Number of Vertices
    0.000000000000,          !- Vertex 1 X-coordinate {m}
    0.000000000000,          !- Vertex 1 Y-coordinate {m}
    2.850000000000,          !- Vertex 1 Z-coordinate {m}
    0.000000000000,          !- Vertex 2 X-coordinate {m}
    0.000000000000,          !- Vertex 2 Y-coordinate {m}
    0.000000000000,          !- Vertex 2 Z-coordinate {m}
    -6.800000000000,         !- Vertex 3 X-coordinate {m}
    0.000000000000,          !- Vertex 3 Y-coordinate {m}
    0.000000000000,          !- Vertex 3 Z-coordinate {m}
    -6.800000000000,         !- Vertex 4 X-coordinate {m}
    0.000000000000,          !- Vertex 4 Y-coordinate {m}
    2.850000000000;          !- Vertex 4 Z-coordinate {m}

BuildingSurface:Detailed,
    61790B,                  !- Name
    Wall,                    !- Surface Type
    Exterior Wall West,      !- Construction Name
    APTO01_P1,               !- Zone Name
    Outdoors,                !- Outside Boundary Condition
    ,                        !- Outside Boundary Condition Object
    SunExposed,              !- Sun Exposure
    WindExposed,             !- Wind Exposure
    ,                        !- View Factor to Ground
    4,                       !- Number of Vertices
    0.000000000000,          !- Vertex 1 X-coordinate {m}
    -6.500000000000,         !- Vertex 1 Y-coordinate {m}
    2.850000000000,          !- Vertex 1 Z-coordinate {m}
    0.000000000000,          !- Vertex 2 X-coordinate {m}
    -6.500000000000,         !- Vertex 2 Y-coordinate {m}
    0.000000000000,          !- Vertex 2 Z-coordinate {m}
    0.000000000000,          !- Vertex 3 X-coordinate {m}
    0.000000000000,          !- Vertex 3 Y-coordinate {m}
    0.000000000000,          !- Vertex 3 Z-coordinate {m}
    0.000000000000,          !- Vertex 4 X-coordinate {m}
    0.000000000000,          !- Vertex 4 Y-coordinate {m}
    2.850000000000;          !- Vertex 4 Z-coordinate {m}

BuildingSurface:Detailed,
    73E053,                  !- Name
    Wall,                    !- Surface Type
    Exterior Wall West,      !- Construction Name
    APTO01_P1,               !- Zone Name
    Outdoors,                !- Outside Boundary Condition
    ,                        !- Outside Boundary Condition Object
    SunExposed,              !- Sun Exposure
    WindExposed,             !- Wind Exposure
    ,                        !- View Factor to Ground
    4,                       !- Number of Vertices
    -6.800000000000,         !- Vertex 1 X-coordinate {m}
    0.000000000000,          !- Vertex 1 Y-coordinate {m}
    2.850000000000,          !- Vertex 1 Z-coordinate {m}
    -6.800000000000,         !- Vertex 2 X-coordinate {m}
    0.000000000000,          !- Vertex 2 Y-coordinate {m}
    0.000000000000,          !- Vertex 2 Z-coordinate {m}
    -6.800000000000,         !- Vertex 3 X-coordinate {m}
    -0.600000000000,         !- Vertex 3 Y-coordinate {m}
    0.000000000000,          !- Vertex 3 Z-coordinate {m}
    -6.800000000000,         !- Vertex 4 X-coordinate {m}
    -0.600000000000,         !- Vertex 4 Y-coordinate {m}
    2.850000000000;          !- Vertex 4 Z-coordinate {m}

BuildingSurface:Detailed,
    C6D47E,                  !- Name
    Wall,                    !- Surface Type
    Exterior Wall North,     !- Construction Name
    APTO01_P1,               !- Zone Name
    Outdoors,                !- Outside Boundary Condition
    ,                        !- Outside Boundary Condition Object
    SunExposed,              !- Sun Exposure
    WindExposed,             !- Wind Exposure
    ,                        !- View Factor to Ground
    4,                       !- Number of Vertices
    -6.800000000000,         !- Vertex 1 X-coordinate {m}
    -6.500000000000,         !- Vertex 1 Y-coordinate {m}
    2.850000000000,          !- Vertex 1 Z-coordinate {m}
    -6.800000000000,         !- Vertex 2 X-coordinate {m}
    -6.500000000000,         !- Vertex 2 Y-coordinate {m}
    0.000000000000,          !- Vertex 2 Z-coordinate {m}
    0.000000000000,          !- Vertex 3 X-coordinate {m}
    -6.500000000000,         !- Vertex 3 Y-coordinate {m}
    0.000000000000,          !- Vertex 3 Z-coordinate {m}
    0.000000000000,          !- Vertex 4 X-coordinate {m}
    -6.500000000000,         !- Vertex 4 Y-coordinate {m}
    2.850000000000;          !- Vertex 4 Z-coordinate {m}

BuildingSurface:Detailed,
    2CAB71,                  !- Name
    Floor,                   !- Surface Type
    Exterior Floor,          !- Construction Name
    CIRCUL01_P1,             !- Zone Name
    Ground,                  !- Outside Boundary Condition
    ,                        !- Outside Boundary Condition Object
    NoSun,                   !- Sun Exposure
    NoWind,                  !- Wind Exposure
    ,                        !- View Factor to Ground
    4,                       !- Number of Vertices
    -9.000000000000,         !- Vertex 1 X-coordinate {m}
    -6.500000000000,         !- Vertex 1 Y-coordinate {m}
    0.000000000000,          !- Vertex 1 Z-coordinate {m}
    -9.000000000000,         !- Vertex 2 X-coordinate {m}
    -0.600000000000,         !- Vertex 2 Y-coordinate {m}
    0.000000000000,          !- Vertex 2 Z-coordinate {m}
    -6.800000000000,         !- Vertex 3 X-coordinate {m}
    -0.600000000000,         !- Vertex 3 Y-coordinate {m}
    0.000000000000,          !- Vertex 3 Z-coordinate {m}
    -6.800000000000,         !- Vertex 4 X-coordinate {m}
    -6.500000000000,         !- Vertex 4 Y-coordinate {m}
    0.000000000000;          !- Vertex 4 Z-coordinate {m}

BuildingSurface:Detailed,
    6B6F44,                  !- Name
    Wall,                    !- Surface Type
    Exterior Wall South,     !- Construction Name
    CIRCUL01_P1,             !- Zone Name
    Outdoors,                !- Outside Boundary Condition
    ,                        !- Outside Boundary Condition Object
    SunExposed,              !- Sun Exposure
    WindExposed,             !- Wind Exposure
    ,                        !- View Factor to Ground
    4,                       !- Number of Vertices
    -6.800000000000,         !- Vertex 1 X-coordinate {m}
    -0.600000000000,         !- Vertex 1 Y-coordinate {m}
    2.850000000000,          !- Vertex 1 Z-coordinate {m}
    -6.800000000000,         !- Vertex 2 X-coordinate {m}
    -0.600000000000,         !- Vertex 2 Y-coordinate {m}
    0.000000000000,          !- Vertex 2 Z-coordinate {m}
    -9.000000000000,         !- Vertex 3 X-coordinate {m}
    -0.600000000000,         !- Vertex 3 Y-coordinate {m}
    0.000000000000,          !- Vertex 3 Z-coordinate {m}
    -9.000000000000,         !- Vertex 4 X-coordinate {m}
    -0.600000000000,         !- Vertex 4 Y-coordinate {m}
    2.850000000000;          !- Vertex 4 Z-coordinate {m}

BuildingSurface:Detailed,
    C87D78,                  !- Name
    Ceiling,                 !- Surface Type
    Interior Ceiling,        !- Construction Name
    CIRCUL01_P1,             !- Zone Name
    Surface,                 !- Outside Boundary Condition
    E2B3D3,                  !- Outside Boundary Condition Object
    NoSun,                   !- Sun Exposure
    NoWind,                  !- Wind Exposure
    ,                        !- View Factor to Ground
    4,                       !- Number of Vertices
    -6.800000000000,         !- Vertex 1 X-coordinate {m}
    -6.500000000000,         !- Vertex 1 Y-coordinate {m}
    2.850000000000,          !- Vertex 1 Z-coordinate {m}
    -6.800000000000,         !- Vertex 2 X-coordinate {m}
    -0.600000000000,         !- Vertex 2 Y-coordinate {m}
    2.850000000000,          !- Vertex 2 Z-coordinate {m}
    -9.000000000000,         !- Vertex 3 X-coordinate {m}
    -0.600000000000,         !- Vertex 3 Y-coordinate {m}
    2.850000000000,          !- Vertex 3 Z-coordinate {m}
    -9.000000000000,         !- Vertex 4 X-coordinate {m}
    -6.500000000000,         !- Vertex 4 Y-coordinate {m}
    2.850000000000;          !- Vertex 4 Z-coordinate {m}

BuildingSurface:Detailed,
    F884D1,                  !- Name
    Wall,                    !- Surface Type
    Exterior Wall North,     !- Construction Name
    CIRCUL01_P1,             !- Zone Name
    Outdoors,                !- Outside Boundary Condition
    ,                        !- Outside Boundary Condition Object
    SunExposed,              !- Sun Exposure
    WindExposed,             !- Wind Exposure
    ,                        !- View Factor to Ground
    4,                       !- Number of Vertices
    -9.000000000000,         !- Vertex 1 X-coordinate {m}
    -6.500000000000,         !- Vertex 1 Y-coordinate {m}
    2.850000000000,          !- Vertex 1 Z-coordinate {m}
    -9.000000000000,         !- Vertex 2 X-coordinate {m}
    -6.500000000000,         !- Vertex 2 Y-coordinate {m}
    0.000000000000,          !- Vertex 2 Z-coordinate {m}
    -6.800000000000,         !- Vertex 3 X-coordinate {m}
    -6.500000000000,         !- Vertex 3 Y-coordinate {m}
    0.000000000000,          !- Vertex 3 Z-coordinate {m}
    -6.800000000000,         !- Vertex 4 X-coordinate {m}
    -6.500000000000,         !- Vertex 4 Y-coordinate {m}
    2.850000000000;          !- Vertex 4 Z-coordinate {m}

BuildingSurface:Detailed,
    5243FD,                  !- Name
    Wall,                    !- Surface Type
    Interior Wall,           !- Construction Name
    CIRCUL01_P1,             !- Zone Name
    Surface,                 !- Outside Boundary Condition
    780785,                  !- Outside Boundary Condition Object
    NoSun,                   !- Sun Exposure
    NoWind,                  !- Wind Exposure
    ,                        !- View Factor to Ground
    4,                       !- Number of Vertices
    -6.800000000000,         !- Vertex 1 X-coordinate {m}
    -6.500000000000,         !- Vertex 1 Y-coordinate {m}
    2.850000000000,          !- Vertex 1 Z-coordinate {m}
    -6.800000000000,         !- Vertex 2 X-coordinate {m}
    -6.500000000000,         !- Vertex 2 Y-coordinate {m}
    0.000000000000,          !- Vertex 2 Z-coordinate {m}
    -6.800000000000,         !- Vertex 3 X-coordinate {m}
    -0.600000000000,         !- Vertex 3 Y-coordinate {m}
    0.000000000000,          !- Vertex 3 Z-coordinate {m}
    -6.800000000000,         !- Vertex 4 X-coordinate {m}
    -0.600000000000,         !- Vertex 4 Y-coordinate {m}
    2.850000000000;          !- Vertex 4 Z-coordinate {m}

BuildingSurface:Detailed,
    210885,                  !- Name
    Wall,                    !- Surface Type
    Interior Wall,           !- Construction Name
    CIRCUL01_P1,             !- Zone Name
    Surface,                 !- Outside Boundary Condition
    E407DF,                  !- Outside Boundary Condition Object
    NoSun,                   !- Sun Exposure
    NoWind,                  !- Wind Exposure
    ,                        !- View Factor to Ground
    4,                       !- Number of Vertices
    -9.000000000000,         !- Vertex 1 X-coordinate {m}
    -0.600000000000,         !- Vertex 1 Y-coordinate {m}
    2.850000000000,          !- Vertex 1 Z-coordinate {m}
    -9.000000000000,         !- Vertex 2 X-coordinate {m}
    -0.600000000000,         !- Vertex 2 Y-coordinate {m}
    0.000000000000,          !- Vertex 2 Z-coordinate {m}
    -9.000000000000,         !- Vertex 3 X-coordinate {m}
    -6.500000000000,         !- Vertex 3 Y-coordinate {m}
    0.000000000000,          !- Vertex 3 Z-coordinate {m}
    -9.000000000000,         !- Vertex 4 X-coordinate {m}
    -6.500000000000,         !- Vertex 4 Y-coordinate {m}
    2.850000000000;          !- Vertex 4 Z-coordinate {m}

BuildingSurface:Detailed,
    2D2C02,                  !- Name
    Floor,                   !- Surface Type
    Exterior Floor,          !- Construction Name
    APTO02_P1,               !- Zone Name
    Ground,                  !- Outside Boundary Condition
    ,                        !- Outside Boundary Condition Object
    NoSun,                   !- Sun Exposure
    NoWind,                  !- Wind Exposure
    ,                        !- View Factor to Ground
    4,                       !- Number of Vertices
    -15.800000000000,        !- Vertex 1 X-coordinate {m}
    -6.500000000000,         !- Vertex 1 Y-coordinate {m}
    0.000000000000,          !- Vertex 1 Z-coordinate {m}
    -15.800000000000,        !- Vertex 2 X-coordinate {m}
    0.000000000000,          !- Vertex 2 Y-coordinate {m}
    0.000000000000,          !- Vertex 2 Z-coordinate {m}
    -9.000000000000,         !- Vertex 3 X-coordinate {m}
    0.000000000000,          !- Vertex 3 Y-coordinate {m}
    0.000000000000,          !- Vertex 3 Z-coordinate {m}
    -9.000000000000,         !- Vertex 4 X-coordinate {m}
    -6.500000000000,         !- Vertex 4 Y-coordinate {m}
    0.000000000000;          !- Vertex 4 Z-coordinate {m}

BuildingSurface:Detailed,
    F780B3,                  !- Name
    Wall,                    !- Surface Type
    Exterior Wall South,     !- Construction Name
    APTO02_P1,               !- Zone Name
    Outdoors,                !- Outside Boundary Condition
    ,                        !- Outside Boundary Condition Object
    SunExposed,              !- Sun Exposure
    WindExposed,             !- Wind Exposure
    ,                        !- View Factor to Ground
    4,                       !- Number of Vertices
    -9.000000000000,         !- Vertex 1 X-coordinate {m}
    0.000000000000,          !- Vertex 1 Y-coordinate {m}
    2.850000000000,          !- Vertex 1 Z-coordinate {m}
    -9.000000000000,         !- Vertex 2 X-coordinate {m}
    0.000000000000,          !- Vertex 2 Y-coordinate {m}
    0.000000000000,          !- Vertex 2 Z-coordinate {m}
    -15.800000000000,        !- Vertex 3 X-coordinate {m}
    0.000000000000,          !- Vertex 3 Y-coordinate {m}
    0.000000000000,          !- Vertex 3 Z-coordinate {m}
    -15.800000000000,        !- Vertex 4 X-coordinate {m}
    0.000000000000,          !- Vertex 4 Y-coordinate {m}
    2.850000000000;          !- Vertex 4 Z-coordinate {m}

BuildingSurface:Detailed,
    4561F5,                  !- Name
    Wall,                    !- Surface Type
    Interior Wall,           !- Construction Name
    APTO02_P1,               !- Zone Name
    Surface,                 !- Outside Boundary Condition
    D7AFE4,                  !- Outside Boundary Condition Object
    NoSun,                   !- Sun Exposure
    NoWind,                  !- Wind Exposure
    ,                        !- View Factor to Ground
    4,                       !- Number of Vertices
    -15.800000000000,        !- Vertex 1 X-coordinate {m}
    0.000000000000,          !- Vertex 1 Y-coordinate {m}
    2.850000000000,          !- Vertex 1 Z-coordinate {m}
    -15.800000000000,        !- Vertex 2 X-coordinate {m}
    0.000000000000,          !- Vertex 2 Y-coordinate {m}
    0.000000000000,          !- Vertex 2 Z-coordinate {m}
    -15.800000000000,        !- Vertex 3 X-coordinate {m}
    -6.500000000000,         !- Vertex 3 Y-coordinate {m}
    0.000000000000,          !- Vertex 3 Z-coordinate {m}
    -15.800000000000,        !- Vertex 4 X-coordinate {m}
    -6.500000000000,         !- Vertex 4 Y-coordinate {m}
    2.850000000000;          !- Vertex 4 Z-coordinate {m}

BuildingSurface:Detailed,
    E407DF,                  !- Name
    Wall,                    !- Surface Type
    Interior Wall,           !- Construction Name
    APTO02_P1,               !- Zone Name
    Surface,                 !- Outside Boundary Condition
    210885,                  !- Outside Boundary Condition Object
    NoSun,                   !- Sun Exposure
    NoWind,                  !- Wind Exposure
    ,                        !- View Factor to Ground
    4,                       !- Number of Vertices
    -9.000000000000,         !- Vertex 1 X-coordinate {m}
    -6.500000000000,         !- Vertex 1 Y-coordinate {m}
    2.850000000000,          !- Vertex 1 Z-coordinate {m}
    -9.000000000000,         !- Vertex 2 X-coordinate {m}
    -6.500000000000,         !- Vertex 2 Y-coordinate {m}
    0.000000000000,          !- Vertex 2 Z-coordinate {m}
    -9.000000000000,         !- Vertex 3 X-coordinate {m}
    -0.600000000000,         !- Vertex 3 Y-coordinate {m}
    0.000000000000,          !- Vertex 3 Z-coordinate {m}
    -9.000000000000,         !- Vertex 4 X-coordinate {m}
    -0.600000000000,         !- Vertex 4 Y-coordinate {m}
    2.850000000000;          !- Vertex 4 Z-coordinate {m}

BuildingSurface:Detailed,
    F4F2A5,                  !- Name
    Wall,                    !- Surface Type
    Exterior Wall North,     !- Construction Name
    APTO02_P1,               !- Zone Name
    Outdoors,                !- Outside Boundary Condition
    ,                        !- Outside Boundary Condition Object
    SunExposed,              !- Sun Exposure
    WindExposed,             !- Wind Exposure
    ,                        !- View Factor to Ground
    4,                       !- Number of Vertices
    -15.800000000000,        !- Vertex 1 X-coordinate {m}
    -6.500000000000,         !- Vertex 1 Y-coordinate {m}
    2.850000000000,          !- Vertex 1 Z-coordinate {m}
    -15.800000000000,        !- Vertex 2 X-coordinate {m}
    -6.500000000000,         !- Vertex 2 Y-coordinate {m}
    0.000000000000,          !- Vertex 2 Z-coordinate {m}
    -9.000000000000,         !- Vertex 3 X-coordinate {m}
    -6.500000000000,         !- Vertex 3 Y-coordinate {m}
    0.000000000000,          !- Vertex 3 Z-coordinate {m}
    -9.000000000000,         !- Vertex 4 X-coordinate {m}
    -6.500000000000,         !- Vertex 4 Y-coordinate {m}
    2.850000000000;          !- Vertex 4 Z-coordinate {m}

BuildingSurface:Detailed,
    2D436B,                  !- Name
    Ceiling,                 !- Surface Type
    Interior Ceiling,        !- Construction Name
    APTO02_P1,               !- Zone Name
    Surface,                 !- Outside Boundary Condition
    63C760,                  !- Outside Boundary Condition Object
    NoSun,                   !- Sun Exposure
    NoWind,                  !- Wind Exposure
    ,                        !- View Factor to Ground
    4,                       !- Number of Vertices
    -9.000000000000,         !- Vertex 1 X-coordinate {m}
    -6.500000000000,         !- Vertex 1 Y-coordinate {m}
    2.850000000000,          !- Vertex 1 Z-coordinate {m}
    -9.000000000000,         !- Vertex 2 X-coordinate {m}
    0.000000000000,          !- Vertex 2 Y-coordinate {m}
    2.850000000000,          !- Vertex 2 Z-coordinate {m}
    -15.800000000000,        !- Vertex 3 X-coordinate {m}
    0.000000000000,          !- Vertex 3 Y-coordinate {m}
    2.850000000000,          !- Vertex 3 Z-coordinate {m}
    -15.800000000000,        !- Vertex 4 X-coordinate {m}
    -6.500000000000,         !- Vertex 4 Y-coordinate {m}
    2.850000000000;          !- Vertex 4 Z-coordinate {m}

BuildingSurface:Detailed,
    416FB5,                  !- Name
    Floor,                   !- Surface Type
    Exterior Floor,          !- Construction Name
    APTO03_P1,               !- Zone Name
    Ground,                  !- Outside Boundary Condition
    ,                        !- Outside Boundary Condition Object
    NoSun,                   !- Sun Exposure
    NoWind,                  !- Wind Exposure
    ,                        !- View Factor to Ground
    4,                       !- Number of Vertices
    -22.600000000000,        !- Vertex 1 X-coordinate {m}
    -6.500000000000,         !- Vertex 1 Y-coordinate {m}
    0.000000000000,          !- Vertex 1 Z-coordinate {m}
    -22.600000000000,        !- Vertex 2 X-coordinate {m}
    0.000000000000,          !- Vertex 2 Y-coordinate {m}
    0.000000000000,          !- Vertex 2 Z-coordinate {m}
    -15.800000000000,        !- Vertex 3 X-coordinate {m}
    0.000000000000,          !- Vertex 3 Y-coordinate {m}
    0.000000000000,          !- Vertex 3 Z-coordinate {m}
    -15.800000000000,        !- Vertex 4 X-coordinate {m}
    -6.500000000000,         !- Vertex 4 Y-coordinate {m}
    0.000000000000;          !- Vertex 4 Z-coordinate {m}

BuildingSurface:Detailed,
    FFC9CD,                  !- Name
    Ceiling,                 !- Surface Type
    Interior Ceiling,        !- Construction Name
    APTO03_P1,               !- Zone Name
    Surface,                 !- Outside Boundary Condition
    F78796,                  !- Outside Boundary Condition Object
    NoSun,                   !- Sun Exposure
    NoWind,                  !- Wind Exposure
    ,                        !- View Factor to Ground
    4,                       !- Number of Vertices
    -15.800000000000,        !- Vertex 1 X-coordinate {m}
    -6.500000000000,         !- Vertex 1 Y-coordinate {m}
    2.850000000000,          !- Vertex 1 Z-coordinate {m}
    -15.800000000000,        !- Vertex 2 X-coordinate {m}
    0.000000000000,          !- Vertex 2 Y-coordinate {m}
    2.850000000000,          !- Vertex 2 Z-coordinate {m}
    -22.600000000000,        !- Vertex 3 X-coordinate {m}
    0.000000000000,          !- Vertex 3 Y-coordinate {m}
    2.850000000000,          !- Vertex 3 Z-coordinate {m}
    -22.600000000000,        !- Vertex 4 X-coordinate {m}
    -6.500000000000,         !- Vertex 4 Y-coordinate {m}
    2.850000000000;          !- Vertex 4 Z-coordinate {m}

BuildingSurface:Detailed,
    784020,                  !- Name
    Wall,                    !- Surface Type
    Exterior Wall South,     !- Construction Name
    APTO03_P1,               !- Zone Name
    Outdoors,                !- Outside Boundary Condition
    ,                        !- Outside Boundary Condition Object
    SunExposed,              !- Sun Exposure
    WindExposed,             !- Wind Exposure
    ,                        !- View Factor to Ground
    4,                       !- Number of Vertices
    -15.800000000000,        !- Vertex 1 X-coordinate {m}
    0.000000000000,          !- Vertex 1 Y-coordinate {m}
    2.850000000000,          !- Vertex 1 Z-coordinate {m}
    -15.800000000000,        !- Vertex 2 X-coordinate {m}
    0.000000000000,          !- Vertex 2 Y-coordinate {m}
    0.000000000000,          !- Vertex 2 Z-coordinate {m}
    -22.600000000000,        !- Vertex 3 X-coordinate {m}
    0.000000000000,          !- Vertex 3 Y-coordinate {m}
    0.000000000000,          !- Vertex 3 Z-coordinate {m}
    -22.600000000000,        !- Vertex 4 X-coordinate {m}
    0.000000000000,          !- Vertex 4 Y-coordinate {m}
    2.850000000000;          !- Vertex 4 Z-coordinate {m}

BuildingSurface:Detailed,
    D7AFE4,                  !- Name
    Wall,                    !- Surface Type
    Interior Wall,           !- Construction Name
    APTO03_P1,               !- Zone Name
    Surface,                 !- Outside Boundary Condition
    4561F5,                  !- Outside Boundary Condition Object
    NoSun,                   !- Sun Exposure
    NoWind,                  !- Wind Exposure
    ,                        !- View Factor to Ground
    4,                       !- Number of Vertices
    -15.800000000000,        !- Vertex 1 X-coordinate {m}
    -6.500000000000,         !- Vertex 1 Y-coordinate {m}
    2.850000000000,          !- Vertex 1 Z-coordinate {m}
    -15.800000000000,        !- Vertex 2 X-coordinate {m}
    -6.500000000000,         !- Vertex 2 Y-coordinate {m}
    0.000000000000,          !- Vertex 2 Z-coordinate {m}
    -15.800000000000,        !- Vertex 3 X-coordinate {m}
    0.000000000000,          !- Vertex 3 Y-coordinate {m}
    0.000000000000,          !- Vertex 3 Z-coordinate {m}
    -15.800000000000,        !- Vertex 4 X-coordinate {m}
    0.000000000000,          !- Vertex 4 Y-coordinate {m}
    2.850000000000;          !- Vertex 4 Z-coordinate {m}

BuildingSurface:Detailed,
    7EF84F,                  !- Name
    Wall,                    !- Surface Type
    Exterior Wall North,     !- Construction Name
    APTO03_P1,               !- Zone Name
    Outdoors,                !- Outside Boundary Condition
    ,                        !- Outside Boundary Condition Object
    SunExposed,              !- Sun Exposure
    WindExposed,             !- Wind Exposure
    ,                        !- View Factor to Ground
    4,                       !- Number of Vertices
    -22.600000000000,        !- Vertex 1 X-coordinate {m}
    -6.500000000000,         !- Vertex 1 Y-coordinate {m}
    2.850000000000,          !- Vertex 1 Z-coordinate {m}
    -22.600000000000,        !- Vertex 2 X-coordinate {m}
    -6.500000000000,         !- Vertex 2 Y-coordinate {m}
    0.000000000000,          !- Vertex 2 Z-coordinate {m}
    -15.800000000000,        !- Vertex 3 X-coordinate {m}
    -6.500000000000,         !- Vertex 3 Y-coordinate {m}
    0.000000000000,          !- Vertex 3 Z-coordinate {m}
    -15.800000000000,        !- Vertex 4 X-coordinate {m}
    -6.500000000000,         !- Vertex 4 Y-coordinate {m}
    2.850000000000;          !- Vertex 4 Z-coordinate {m}

BuildingSurface:Detailed,
    35A640,                  !- Name
    Wall,                    !- Surface Type
    Exterior Wall East,      !- Construction Name
    APTO03_P1,               !- Zone Name
    Outdoors,                !- Outside Boundary Condition
    ,                        !- Outside Boundary Condition Object
    SunExposed,              !- Sun Exposure
    WindExposed,             !- Wind Exposure
    ,                        !- View Factor to Ground
    4,                       !- Number of Vertices
    -22.600000000000,        !- Vertex 1 X-coordinate {m}
    0.000000000000,          !- Vertex 1 Y-coordinate {m}
    2.850000000000,          !- Vertex 1 Z-coordinate {m}
    -22.600000000000,        !- Vertex 2 X-coordinate {m}
    0.000000000000,          !- Vertex 2 Y-coordinate {m}
    0.000000000000,          !- Vertex 2 Z-coordinate {m}
    -22.600000000000,        !- Vertex 3 X-coordinate {m}
    -0.600000000000,         !- Vertex 3 Y-coordinate {m}
    0.000000000000,          !- Vertex 3 Z-coordinate {m}
    -22.600000000000,        !- Vertex 4 X-coordinate {m}
    -0.600000000000,         !- Vertex 4 Y-coordinate {m}
    2.850000000000;          !- Vertex 4 Z-coordinate {m}

BuildingSurface:Detailed,
    293401,                  !- Name
    Floor,                   !- Surface Type
    Exterior Floor,          !- Construction Name
    CIRCUL02_P1,             !- Zone Name
    Ground,                  !- Outside Boundary Condition
    ,                        !- Outside Boundary Condition Object
    NoSun,                   !- Sun Exposure
    NoWind,                  !- Wind Exposure
    ,                        !- View Factor to Ground
    4,                       !- Number of Vertices
    -24.800000000000,        !- Vertex 1 X-coordinate {m}
    -6.500000000000,         !- Vertex 1 Y-coordinate {m}
    0.000000000000,          !- Vertex 1 Z-coordinate {m}
    -24.800000000000,        !- Vertex 2 X-coordinate {m}
    -0.600000000000,         !- Vertex 2 Y-coordinate {m}
    0.000000000000,          !- Vertex 2 Z-coordinate {m}
    -22.600000000000,        !- Vertex 3 X-coordinate {m}
    -0.600000000000,         !- Vertex 3 Y-coordinate {m}
    0.000000000000,          !- Vertex 3 Z-coordinate {m}
    -22.600000000000,        !- Vertex 4 X-coordinate {m}
    -6.500000000000,         !- Vertex 4 Y-coordinate {m}
    0.000000000000;          !- Vertex 4 Z-coordinate {m}

BuildingSurface:Detailed,
    76925F,                  !- Name
    Ceiling,                 !- Surface Type
    Interior Ceiling,        !- Construction Name
    CIRCUL02_P1,             !- Zone Name
    Surface,                 !- Outside Boundary Condition
    23FDFB,                  !- Outside Boundary Condition Object
    NoSun,                   !- Sun Exposure
    NoWind,                  !- Wind Exposure
    ,                        !- View Factor to Ground
    4,                       !- Number of Vertices
    -22.600000000000,        !- Vertex 1 X-coordinate {m}
    -6.500000000000,         !- Vertex 1 Y-coordinate {m}
    2.850000000000,          !- Vertex 1 Z-coordinate {m}
    -22.600000000000,        !- Vertex 2 X-coordinate {m}
    -0.600000000000,         !- Vertex 2 Y-coordinate {m}
    2.850000000000,          !- Vertex 2 Z-coordinate {m}
    -24.800000000000,        !- Vertex 3 X-coordinate {m}
    -0.600000000000,         !- Vertex 3 Y-coordinate {m}
    2.850000000000,          !- Vertex 3 Z-coordinate {m}
    -24.800000000000,        !- Vertex 4 X-coordinate {m}
    -6.500000000000,         !- Vertex 4 Y-coordinate {m}
    2.850000000000;          !- Vertex 4 Z-coordinate {m}

BuildingSurface:Detailed,
    E9C199,                  !- Name
    Wall,                    !- Surface Type
    Exterior Wall North,     !- Construction Name
    CIRCUL02_P1,             !- Zone Name
    Outdoors,                !- Outside Boundary Condition
    ,                        !- Outside Boundary Condition Object
    SunExposed,              !- Sun Exposure
    WindExposed,             !- Wind Exposure
    ,                        !- View Factor to Ground
    4,                       !- Number of Vertices
    -24.800000000000,        !- Vertex 1 X-coordinate {m}
    -6.500000000000,         !- Vertex 1 Y-coordinate {m}
    2.850000000000,          !- Vertex 1 Z-coordinate {m}
    -24.800000000000,        !- Vertex 2 X-coordinate {m}
    -6.500000000000,         !- Vertex 2 Y-coordinate {m}
    0.000000000000,          !- Vertex 2 Z-coordinate {m}
    -22.600000000000,        !- Vertex 3 X-coordinate {m}
    -6.500000000000,         !- Vertex 3 Y-coordinate {m}
    0.000000000000,          !- Vertex 3 Z-coordinate {m}
    -22.600000000000,        !- Vertex 4 X-coordinate {m}
    -6.500000000000,         !- Vertex 4 Y-coordinate {m}
    2.850000000000;          !- Vertex 4 Z-coordinate {m}

BuildingSurface:Detailed,
    84537A,                  !- Name
    Wall,                    !- Surface Type
    Interior Wall,           !- Construction Name
    CIRCUL02_P1,             !- Zone Name
    Surface,                 !- Outside Boundary Condition
    C45FBB,                  !- Outside Boundary Condition Object
    NoSun,                   !- Sun Exposure
    NoWind,                  !- Wind Exposure
    ,                        !- View Factor to Ground
    4,                       !- Number of Vertices
    -24.800000000000,        !- Vertex 1 X-coordinate {m}
    -0.600000000000,         !- Vertex 1 Y-coordinate {m}
    2.850000000000,          !- Vertex 1 Z-coordinate {m}
    -24.800000000000,        !- Vertex 2 X-coordinate {m}
    -0.600000000000,         !- Vertex 2 Y-coordinate {m}
    0.000000000000,          !- Vertex 2 Z-coordinate {m}
    -24.800000000000,        !- Vertex 3 X-coordinate {m}
    -6.500000000000,         !- Vertex 3 Y-coordinate {m}
    0.000000000000,          !- Vertex 3 Z-coordinate {m}
    -24.800000000000,        !- Vertex 4 X-coordinate {m}
    -6.500000000000,         !- Vertex 4 Y-coordinate {m}
    2.850000000000;          !- Vertex 4 Z-coordinate {m}

BuildingSurface:Detailed,
    1B2172,                  !- Name
    Wall,                    !- Surface Type
    Exterior Wall South,     !- Construction Name
    CIRCUL02_P1,             !- Zone Name
    Outdoors,                !- Outside Boundary Condition
    ,                        !- Outside Boundary Condition Object
    SunExposed,              !- Sun Exposure
    WindExposed,             !- Wind Exposure
    ,                        !- View Factor to Ground
    4,                       !- Number of Vertices
    -22.600000000000,        !- Vertex 1 X-coordinate {m}
    -0.600000000000,         !- Vertex 1 Y-coordinate {m}
    2.850000000000,          !- Vertex 1 Z-coordinate {m}
    -22.600000000000,        !- Vertex 2 X-coordinate {m}
    -0.600000000000,         !- Vertex 2 Y-coordinate {m}
    0.000000000000,          !- Vertex 2 Z-coordinate {m}
    -24.800000000000,        !- Vertex 3 X-coordinate {m}
    -0.600000000000,         !- Vertex 3 Y-coordinate {m}
    0.000000000000,          !- Vertex 3 Z-coordinate {m}
    -24.800000000000,        !- Vertex 4 X-coordinate {m}
    -0.600000000000,         !- Vertex 4 Y-coordinate {m}
    2.850000000000;          !- Vertex 4 Z-coordinate {m}

BuildingSurface:Detailed,
    148CF4,                  !- Name
    Wall,                    !- Surface Type
    Interior Wall,           !- Construction Name
    CIRCUL02_P1,             !- Zone Name
    Surface,                 !- Outside Boundary Condition
    128102,                  !- Outside Boundary Condition Object
    NoSun,                   !- Sun Exposure
    NoWind,                  !- Wind Exposure
    ,                        !- View Factor to Ground
    4,                       !- Number of Vertices
    -22.600000000000,        !- Vertex 1 X-coordinate {m}
    -6.500000000000,         !- Vertex 1 Y-coordinate {m}
    2.850000000000,          !- Vertex 1 Z-coordinate {m}
    -22.600000000000,        !- Vertex 2 X-coordinate {m}
    -6.500000000000,         !- Vertex 2 Y-coordinate {m}
    0.000000000000,          !- Vertex 2 Z-coordinate {m}
    -22.600000000000,        !- Vertex 3 X-coordinate {m}
    -0.600000000000,         !- Vertex 3 Y-coordinate {m}
    0.000000000000,          !- Vertex 3 Z-coordinate {m}
    -22.600000000000,        !- Vertex 4 X-coordinate {m}
    -0.600000000000,         !- Vertex 4 Y-coordinate {m}
    2.850000000000;          !- Vertex 4 Z-coordinate {m}

BuildingSurface:Detailed,
    5A1810,                  !- Name
    Floor,                   !- Surface Type
    Exterior Floor,          !- Construction Name
    APTO04_P1,               !- Zone Name
    Ground,                  !- Outside Boundary Condition
    ,                        !- Outside Boundary Condition Object
    NoSun,                   !- Sun Exposure
    NoWind,                  !- Wind Exposure
    ,                        !- View Factor to Ground
    4,                       !- Number of Vertices
    -31.600000000000,        !- Vertex 1 X-coordinate {m}
    -6.500000000000,         !- Vertex 1 Y-coordinate {m}
    0.000000000000,          !- Vertex 1 Z-coordinate {m}
    -31.600000000000,        !- Vertex 2 X-coordinate {m}
    0.000000000000,          !- Vertex 2 Y-coordinate {m}
    0.000000000000,          !- Vertex 2 Z-coordinate {m}
    -24.800000000000,        !- Vertex 3 X-coordinate {m}
    0.000000000000,          !- Vertex 3 Y-coordinate {m}
    0.000000000000,          !- Vertex 3 Z-coordinate {m}
    -24.800000000000,        !- Vertex 4 X-coordinate {m}
    -6.500000000000,         !- Vertex 4 Y-coordinate {m}
    0.000000000000;          !- Vertex 4 Z-coordinate {m}

BuildingSurface:Detailed,
    A3098A,                  !- Name
    Ceiling,                 !- Surface Type
    Interior Ceiling,        !- Construction Name
    APTO04_P1,               !- Zone Name
    Surface,                 !- Outside Boundary Condition
    5F75EA,                  !- Outside Boundary Condition Object
    NoSun,                   !- Sun Exposure
    NoWind,                  !- Wind Exposure
    ,                        !- View Factor to Ground
    4,                       !- Number of Vertices
    -24.800000000000,        !- Vertex 1 X-coordinate {m}
    -6.500000000000,         !- Vertex 1 Y-coordinate {m}
    2.850000000000,          !- Vertex 1 Z-coordinate {m}
    -24.800000000000,        !- Vertex 2 X-coordinate {m}
    0.000000000000,          !- Vertex 2 Y-coordinate {m}
    2.850000000000,          !- Vertex 2 Z-coordinate {m}
    -31.600000000000,        !- Vertex 3 X-coordinate {m}
    0.000000000000,          !- Vertex 3 Y-coordinate {m}
    2.850000000000,          !- Vertex 3 Z-coordinate {m}
    -31.600000000000,        !- Vertex 4 X-coordinate {m}
    -6.500000000000,         !- Vertex 4 Y-coordinate {m}
    2.850000000000;          !- Vertex 4 Z-coordinate {m}

BuildingSurface:Detailed,
    A01CDE,                  !- Name
    Wall,                    !- Surface Type
    Exterior Wall North,     !- Construction Name
    APTO04_P1,               !- Zone Name
    Outdoors,                !- Outside Boundary Condition
    ,                        !- Outside Boundary Condition Object
    SunExposed,              !- Sun Exposure
    WindExposed,             !- Wind Exposure
    ,                        !- View Factor to Ground
    4,                       !- Number of Vertices
    -31.600000000000,        !- Vertex 1 X-coordinate {m}
    -6.500000000000,         !- Vertex 1 Y-coordinate {m}
    2.850000000000,          !- Vertex 1 Z-coordinate {m}
    -31.600000000000,        !- Vertex 2 X-coordinate {m}
    -6.500000000000,         !- Vertex 2 Y-coordinate {m}
    0.000000000000,          !- Vertex 2 Z-coordinate {m}
    -24.800000000000,        !- Vertex 3 X-coordinate {m}
    -6.500000000000,         !- Vertex 3 Y-coordinate {m}
    0.000000000000,          !- Vertex 3 Z-coordinate {m}
    -24.800000000000,        !- Vertex 4 X-coordinate {m}
    -6.500000000000,         !- Vertex 4 Y-coordinate {m}
    2.850000000000;          !- Vertex 4 Z-coordinate {m}

BuildingSurface:Detailed,
    C45FBB,                  !- Name
    Wall,                    !- Surface Type
    Interior Wall,           !- Construction Name
    APTO04_P1,               !- Zone Name
    Surface,                 !- Outside Boundary Condition
    84537A,                  !- Outside Boundary Condition Object
    NoSun,                   !- Sun Exposure
    NoWind,                  !- Wind Exposure
    ,                        !- View Factor to Ground
    4,                       !- Number of Vertices
    -24.800000000000,        !- Vertex 1 X-coordinate {m}
    -6.500000000000,         !- Vertex 1 Y-coordinate {m}
    2.850000000000,          !- Vertex 1 Z-coordinate {m}
    -24.800000000000,        !- Vertex 2 X-coordinate {m}
    -6.500000000000,         !- Vertex 2 Y-coordinate {m}
    0.000000000000,          !- Vertex 2 Z-coordinate {m}
    -24.800000000000,        !- Vertex 3 X-coordinate {m}
    -0.600000000000,         !- Vertex 3 Y-coordinate {m}
    0.000000000000,          !- Vertex 3 Z-coordinate {m}
    -24.800000000000,        !- Vertex 4 X-coordinate {m}
    -0.600000000000,         !- Vertex 4 Y-coordinate {m}
    2.850000000000;          !- Vertex 4 Z-coordinate {m}

BuildingSurface:Detailed,
    C70EDC,                  !- Name
    Wall,                    !- Surface Type
    Exterior Wall South,     !- Construction Name
    APTO04_P1,               !- Zone Name
    Outdoors,                !- Outside Boundary Condition
    ,                        !- Outside Boundary Condition Object
    SunExposed,              !- Sun Exposure
    WindExposed,             !- Wind Exposure
    ,                        !- View Factor to Ground
    4,                       !- Number of Vertices
    -24.800000000000,        !- Vertex 1 X-coordinate {m}
    0.000000000000,          !- Vertex 1 Y-coordinate {m}
    2.850000000000,          !- Vertex 1 Z-coordinate {m}
    -24.800000000000,        !- Vertex 2 X-coordinate {m}
    0.000000000000,          !- Vertex 2 Y-coordinate {m}
    0.000000000000,          !- Vertex 2 Z-coordinate {m}
    -31.600000000000,        !- Vertex 3 X-coordinate {m}
    0.000000000000,          !- Vertex 3 Y-coordinate {m}
    0.000000000000,          !- Vertex 3 Z-coordinate {m}
    -31.600000000000,        !- Vertex 4 X-coordinate {m}
    0.000000000000,          !- Vertex 4 Y-coordinate {m}
    2.850000000000;          !- Vertex 4 Z-coordinate {m}

BuildingSurface:Detailed,
    505554,                  !- Name
    Wall,                    !- Surface Type
    Exterior Wall East,      !- Construction Name
    APTO04_P1,               !- Zone Name
    Outdoors,                !- Outside Boundary Condition
    ,                        !- Outside Boundary Condition Object
    SunExposed,              !- Sun Exposure
    WindExposed,             !- Wind Exposure
    ,                        !- View Factor to Ground
    4,                       !- Number of Vertices
    -31.600000000000,        !- Vertex 1 X-coordinate {m}
    0.000000000000,          !- Vertex 1 Y-coordinate {m}
    2.850000000000,          !- Vertex 1 Z-coordinate {m}
    -31.600000000000,        !- Vertex 2 X-coordinate {m}
    0.000000000000,          !- Vertex 2 Y-coordinate {m}
    0.000000000000,          !- Vertex 2 Z-coordinate {m}
    -31.600000000000,        !- Vertex 3 X-coordinate {m}
    -6.500000000000,         !- Vertex 3 Y-coordinate {m}
    0.000000000000,          !- Vertex 3 Z-coordinate {m}
    -31.600000000000,        !- Vertex 4 X-coordinate {m}
    -6.500000000000,         !- Vertex 4 Y-coordinate {m}
    2.850000000000;          !- Vertex 4 Z-coordinate {m}

BuildingSurface:Detailed,
    23FDFB,                  !- Name
    Floor,                   !- Surface Type
    Interior Floor,          !- Construction Name
    CIRCUL02_P2,             !- Zone Name
    Surface,                 !- Outside Boundary Condition
    76925F,                  !- Outside Boundary Condition Object
    NoSun,                   !- Sun Exposure
    NoWind,                  !- Wind Exposure
    ,                        !- View Factor to Ground
    4,                       !- Number of Vertices
    -24.800000000000,        !- Vertex 1 X-coordinate {m}
    -6.500000000000,         !- Vertex 1 Y-coordinate {m}
    2.850000000000,          !- Vertex 1 Z-coordinate {m}
    -24.800000000000,        !- Vertex 2 X-coordinate {m}
    -0.600000000000,         !- Vertex 2 Y-coordinate {m}
    2.850000000000,          !- Vertex 2 Z-coordinate {m}
    -22.600000000000,        !- Vertex 3 X-coordinate {m}
    -0.600000000000,         !- Vertex 3 Y-coordinate {m}
    2.850000000000,          !- Vertex 3 Z-coordinate {m}
    -22.600000000000,        !- Vertex 4 X-coordinate {m}
    -6.500000000000,         !- Vertex 4 Y-coordinate {m}
    2.850000000000;          !- Vertex 4 Z-coordinate {m}

BuildingSurface:Detailed,
    B40245,                  !- Name
    Ceiling,                 !- Surface Type
    Interior Ceiling,        !- Construction Name
    CIRCUL02_P2,             !- Zone Name
    Surface,                 !- Outside Boundary Condition
    AA2349,                  !- Outside Boundary Condition Object
    NoSun,                   !- Sun Exposure
    NoWind,                  !- Wind Exposure
    ,                        !- View Factor to Ground
    4,                       !- Number of Vertices
    -22.600000000000,        !- Vertex 1 X-coordinate {m}
    -6.500000000000,         !- Vertex 1 Y-coordinate {m}
    5.700000000000,          !- Vertex 1 Z-coordinate {m}
    -22.600000000000,        !- Vertex 2 X-coordinate {m}
    -0.600000000000,         !- Vertex 2 Y-coordinate {m}
    5.700000000000,          !- Vertex 2 Z-coordinate {m}
    -24.800000000000,        !- Vertex 3 X-coordinate {m}
    -0.600000000000,         !- Vertex 3 Y-coordinate {m}
    5.700000000000,          !- Vertex 3 Z-coordinate {m}
    -24.800000000000,        !- Vertex 4 X-coordinate {m}
    -6.500000000000,         !- Vertex 4 Y-coordinate {m}
    5.700000000000;          !- Vertex 4 Z-coordinate {m}

BuildingSurface:Detailed,
    A7826F,                  !- Name
    Wall,                    !- Surface Type
    Exterior Wall North,     !- Construction Name
    CIRCUL02_P2,             !- Zone Name
    Outdoors,                !- Outside Boundary Condition
    ,                        !- Outside Boundary Condition Object
    SunExposed,              !- Sun Exposure
    WindExposed,             !- Wind Exposure
    ,                        !- View Factor to Ground
    4,                       !- Number of Vertices
    -24.800000000000,        !- Vertex 1 X-coordinate {m}
    -6.500000000000,         !- Vertex 1 Y-coordinate {m}
    5.700000000000,          !- Vertex 1 Z-coordinate {m}
    -24.800000000000,        !- Vertex 2 X-coordinate {m}
    -6.500000000000,         !- Vertex 2 Y-coordinate {m}
    2.850000000000,          !- Vertex 2 Z-coordinate {m}
    -22.600000000000,        !- Vertex 3 X-coordinate {m}
    -6.500000000000,         !- Vertex 3 Y-coordinate {m}
    2.850000000000,          !- Vertex 3 Z-coordinate {m}
    -22.600000000000,        !- Vertex 4 X-coordinate {m}
    -6.500000000000,         !- Vertex 4 Y-coordinate {m}
    5.700000000000;          !- Vertex 4 Z-coordinate {m}

BuildingSurface:Detailed,
    73D203,                  !- Name
    Wall,                    !- Surface Type
    Interior Wall,           !- Construction Name
    CIRCUL02_P2,             !- Zone Name
    Surface,                 !- Outside Boundary Condition
    F488EC,                  !- Outside Boundary Condition Object
    NoSun,                   !- Sun Exposure
    NoWind,                  !- Wind Exposure
    ,                        !- View Factor to Ground
    4,                       !- Number of Vertices
    -24.800000000000,        !- Vertex 1 X-coordinate {m}
    -0.600000000000,         !- Vertex 1 Y-coordinate {m}
    5.700000000000,          !- Vertex 1 Z-coordinate {m}
    -24.800000000000,        !- Vertex 2 X-coordinate {m}
    -0.600000000000,         !- Vertex 2 Y-coordinate {m}
    2.850000000000,          !- Vertex 2 Z-coordinate {m}
    -24.800000000000,        !- Vertex 3 X-coordinate {m}
    -6.500000000000,         !- Vertex 3 Y-coordinate {m}
    2.850000000000,          !- Vertex 3 Z-coordinate {m}
    -24.800000000000,        !- Vertex 4 X-coordinate {m}
    -6.500000000000,         !- Vertex 4 Y-coordinate {m}
    5.700000000000;          !- Vertex 4 Z-coordinate {m}

BuildingSurface:Detailed,
    4C25A0,                  !- Name
    Wall,                    !- Surface Type
    Exterior Wall South,     !- Construction Name
    CIRCUL02_P2,             !- Zone Name
    Outdoors,                !- Outside Boundary Condition
    ,                        !- Outside Boundary Condition Object
    SunExposed,              !- Sun Exposure
    WindExposed,             !- Wind Exposure
    ,                        !- View Factor to Ground
    4,                       !- Number of Vertices
    -22.600000000000,        !- Vertex 1 X-coordinate {m}
    -0.600000000000,         !- Vertex 1 Y-coordinate {m}
    5.700000000000,          !- Vertex 1 Z-coordinate {m}
    -22.600000000000,        !- Vertex 2 X-coordinate {m}
    -0.600000000000,         !- Vertex 2 Y-coordinate {m}
    2.850000000000,          !- Vertex 2 Z-coordinate {m}
    -24.800000000000,        !- Vertex 3 X-coordinate {m}
    -0.600000000000,         !- Vertex 3 Y-coordinate {m}
    2.850000000000,          !- Vertex 3 Z-coordinate {m}
    -24.800000000000,        !- Vertex 4 X-coordinate {m}
    -0.600000000000,         !- Vertex 4 Y-coordinate {m}
    5.700000000000;          !- Vertex 4 Z-coordinate {m}

BuildingSurface:Detailed,
    F0F5CC,                  !- Name
    Wall,                    !- Surface Type
    Interior Wall,           !- Construction Name
    CIRCUL02_P2,             !- Zone Name
    Surface,                 !- Outside Boundary Condition
    BF7A06,                  !- Outside Boundary Condition Object
    NoSun,                   !- Sun Exposure
    NoWind,                  !- Wind Exposure
    ,                        !- View Factor to Ground
    4,                       !- Number of Vertices
    -22.600000000000,        !- Vertex 1 X-coordinate {m}
    -6.500000000000,         !- Vertex 1 Y-coordinate {m}
    5.700000000000,          !- Vertex 1 Z-coordinate {m}
    -22.600000000000,        !- Vertex 2 X-coordinate {m}
    -6.500000000000,         !- Vertex 2 Y-coordinate {m}
    2.850000000000,          !- Vertex 2 Z-coordinate {m}
    -22.600000000000,        !- Vertex 3 X-coordinate {m}
    -0.600000000000,         !- Vertex 3 Y-coordinate {m}
    2.850000000000,          !- Vertex 3 Z-coordinate {m}
    -22.600000000000,        !- Vertex 4 X-coordinate {m}
    -0.600000000000,         !- Vertex 4 Y-coordinate {m}
    5.700000000000;          !- Vertex 4 Z-coordinate {m}

BuildingSurface:Detailed,
    63C760,                  !- Name
    Floor,                   !- Surface Type
    Interior Floor,          !- Construction Name
    APTO02_P2,               !- Zone Name
    Surface,                 !- Outside Boundary Condition
    2D436B,                  !- Outside Boundary Condition Object
    NoSun,                   !- Sun Exposure
    NoWind,                  !- Wind Exposure
    ,                        !- View Factor to Ground
    4,                       !- Number of Vertices
    -15.800000000000,        !- Vertex 1 X-coordinate {m}
    -6.500000000000,         !- Vertex 1 Y-coordinate {m}
    2.850000000000,          !- Vertex 1 Z-coordinate {m}
    -15.800000000000,        !- Vertex 2 X-coordinate {m}
    0.000000000000,          !- Vertex 2 Y-coordinate {m}
    2.850000000000,          !- Vertex 2 Z-coordinate {m}
    -9.000000000000,         !- Vertex 3 X-coordinate {m}
    0.000000000000,          !- Vertex 3 Y-coordinate {m}
    2.850000000000,          !- Vertex 3 Z-coordinate {m}
    -9.000000000000,         !- Vertex 4 X-coordinate {m}
    -6.500000000000,         !- Vertex 4 Y-coordinate {m}
    2.850000000000;          !- Vertex 4 Z-coordinate {m}

BuildingSurface:Detailed,
    5CA5EE,                  !- Name
    Ceiling,                 !- Surface Type
    Interior Ceiling,        !- Construction Name
    APTO02_P2,               !- Zone Name
    Surface,                 !- Outside Boundary Condition
    391DC7,                  !- Outside Boundary Condition Object
    NoSun,                   !- Sun Exposure
    NoWind,                  !- Wind Exposure
    ,                        !- View Factor to Ground
    4,                       !- Number of Vertices
    -9.000000000000,         !- Vertex 1 X-coordinate {m}
    -6.500000000000,         !- Vertex 1 Y-coordinate {m}
    5.700000000000,          !- Vertex 1 Z-coordinate {m}
    -9.000000000000,         !- Vertex 2 X-coordinate {m}
    0.000000000000,          !- Vertex 2 Y-coordinate {m}
    5.700000000000,          !- Vertex 2 Z-coordinate {m}
    -15.800000000000,        !- Vertex 3 X-coordinate {m}
    0.000000000000,          !- Vertex 3 Y-coordinate {m}
    5.700000000000,          !- Vertex 3 Z-coordinate {m}
    -15.800000000000,        !- Vertex 4 X-coordinate {m}
    -6.500000000000,         !- Vertex 4 Y-coordinate {m}
    5.700000000000;          !- Vertex 4 Z-coordinate {m}

BuildingSurface:Detailed,
    D3A9CC,                  !- Name
    Wall,                    !- Surface Type
    Exterior Wall North,     !- Construction Name
    APTO02_P2,               !- Zone Name
    Outdoors,                !- Outside Boundary Condition
    ,                        !- Outside Boundary Condition Object
    SunExposed,              !- Sun Exposure
    WindExposed,             !- Wind Exposure
    ,                        !- View Factor to Ground
    4,                       !- Number of Vertices
    -15.800000000000,        !- Vertex 1 X-coordinate {m}
    -6.500000000000,         !- Vertex 1 Y-coordinate {m}
    5.700000000000,          !- Vertex 1 Z-coordinate {m}
    -15.800000000000,        !- Vertex 2 X-coordinate {m}
    -6.500000000000,         !- Vertex 2 Y-coordinate {m}
    2.850000000000,          !- Vertex 2 Z-coordinate {m}
    -9.000000000000,         !- Vertex 3 X-coordinate {m}
    -6.500000000000,         !- Vertex 3 Y-coordinate {m}
    2.850000000000,          !- Vertex 3 Z-coordinate {m}
    -9.000000000000,         !- Vertex 4 X-coordinate {m}
    -6.500000000000,         !- Vertex 4 Y-coordinate {m}
    5.700000000000;          !- Vertex 4 Z-coordinate {m}

BuildingSurface:Detailed,
    C2EA4E,                  !- Name
    Wall,                    !- Surface Type
    Interior Wall,           !- Construction Name
    APTO02_P2,               !- Zone Name
    Surface,                 !- Outside Boundary Condition
    BEBCBE,                  !- Outside Boundary Condition Object
    NoSun,                   !- Sun Exposure
    NoWind,                  !- Wind Exposure
    ,                        !- View Factor to Ground
    4,                       !- Number of Vertices
    -9.000000000000,         !- Vertex 1 X-coordinate {m}
    -6.500000000000,         !- Vertex 1 Y-coordinate {m}
    5.700000000000,          !- Vertex 1 Z-coordinate {m}
    -9.000000000000,         !- Vertex 2 X-coordinate {m}
    -6.500000000000,         !- Vertex 2 Y-coordinate {m}
    2.850000000000,          !- Vertex 2 Z-coordinate {m}
    -9.000000000000,         !- Vertex 3 X-coordinate {m}
    -0.600000000000,         !- Vertex 3 Y-coordinate {m}
    2.850000000000,          !- Vertex 3 Z-coordinate {m}
    -9.000000000000,         !- Vertex 4 X-coordinate {m}
    -0.600000000000,         !- Vertex 4 Y-coordinate {m}
    5.700000000000;          !- Vertex 4 Z-coordinate {m}

BuildingSurface:Detailed,
    69F8B5,                  !- Name
    Wall,                    !- Surface Type
    Exterior Wall South,     !- Construction Name
    APTO02_P2,               !- Zone Name
    Outdoors,                !- Outside Boundary Condition
    ,                        !- Outside Boundary Condition Object
    SunExposed,              !- Sun Exposure
    WindExposed,             !- Wind Exposure
    ,                        !- View Factor to Ground
    4,                       !- Number of Vertices
    -9.000000000000,         !- Vertex 1 X-coordinate {m}
    0.000000000000,          !- Vertex 1 Y-coordinate {m}
    5.700000000000,          !- Vertex 1 Z-coordinate {m}
    -9.000000000000,         !- Vertex 2 X-coordinate {m}
    0.000000000000,          !- Vertex 2 Y-coordinate {m}
    2.850000000000,          !- Vertex 2 Z-coordinate {m}
    -15.800000000000,        !- Vertex 3 X-coordinate {m}
    0.000000000000,          !- Vertex 3 Y-coordinate {m}
    2.850000000000,          !- Vertex 3 Z-coordinate {m}
    -15.800000000000,        !- Vertex 4 X-coordinate {m}
    0.000000000000,          !- Vertex 4 Y-coordinate {m}
    5.700000000000;          !- Vertex 4 Z-coordinate {m}

BuildingSurface:Detailed,
    9127D4,                  !- Name
    Wall,                    !- Surface Type
    Interior Wall,           !- Construction Name
    APTO02_P2,               !- Zone Name
    Surface,                 !- Outside Boundary Condition
    DD3002,                  !- Outside Boundary Condition Object
    NoSun,                   !- Sun Exposure
    NoWind,                  !- Wind Exposure
    ,                        !- View Factor to Ground
    4,                       !- Number of Vertices
    -15.800000000000,        !- Vertex 1 X-coordinate {m}
    0.000000000000,          !- Vertex 1 Y-coordinate {m}
    5.700000000000,          !- Vertex 1 Z-coordinate {m}
    -15.800000000000,        !- Vertex 2 X-coordinate {m}
    0.000000000000,          !- Vertex 2 Y-coordinate {m}
    2.850000000000,          !- Vertex 2 Z-coordinate {m}
    -15.800000000000,        !- Vertex 3 X-coordinate {m}
    -6.500000000000,         !- Vertex 3 Y-coordinate {m}
    2.850000000000,          !- Vertex 3 Z-coordinate {m}
    -15.800000000000,        !- Vertex 4 X-coordinate {m}
    -6.500000000000,         !- Vertex 4 Y-coordinate {m}
    5.700000000000;          !- Vertex 4 Z-coordinate {m}

BuildingSurface:Detailed,
    5F75EA,                  !- Name
    Floor,                   !- Surface Type
    Interior Floor,          !- Construction Name
    APTO04_P2,               !- Zone Name
    Surface,                 !- Outside Boundary Condition
    A3098A,                  !- Outside Boundary Condition Object
    NoSun,                   !- Sun Exposure
    NoWind,                  !- Wind Exposure
    ,                        !- View Factor to Ground
    4,                       !- Number of Vertices
    -31.600000000000,        !- Vertex 1 X-coordinate {m}
    -6.500000000000,         !- Vertex 1 Y-coordinate {m}
    2.850000000000,          !- Vertex 1 Z-coordinate {m}
    -31.600000000000,        !- Vertex 2 X-coordinate {m}
    0.000000000000,          !- Vertex 2 Y-coordinate {m}
    2.850000000000,          !- Vertex 2 Z-coordinate {m}
    -24.800000000000,        !- Vertex 3 X-coordinate {m}
    0.000000000000,          !- Vertex 3 Y-coordinate {m}
    2.850000000000,          !- Vertex 3 Z-coordinate {m}
    -24.800000000000,        !- Vertex 4 X-coordinate {m}
    -6.500000000000,         !- Vertex 4 Y-coordinate {m}
    2.850000000000;          !- Vertex 4 Z-coordinate {m}

BuildingSurface:Detailed,
    19BF95,                  !- Name
    Ceiling,                 !- Surface Type
    Interior Ceiling,        !- Construction Name
    APTO04_P2,               !- Zone Name
    Surface,                 !- Outside Boundary Condition
    88564B,                  !- Outside Boundary Condition Object
    NoSun,                   !- Sun Exposure
    NoWind,                  !- Wind Exposure
    ,                        !- View Factor to Ground
    4,                       !- Number of Vertices
    -24.800000000000,        !- Vertex 1 X-coordinate {m}
    -6.500000000000,         !- Vertex 1 Y-coordinate {m}
    5.700000000000,          !- Vertex 1 Z-coordinate {m}
    -24.800000000000,        !- Vertex 2 X-coordinate {m}
    0.000000000000,          !- Vertex 2 Y-coordinate {m}
    5.700000000000,          !- Vertex 2 Z-coordinate {m}
    -31.600000000000,        !- Vertex 3 X-coordinate {m}
    0.000000000000,          !- Vertex 3 Y-coordinate {m}
    5.700000000000,          !- Vertex 3 Z-coordinate {m}
    -31.600000000000,        !- Vertex 4 X-coordinate {m}
    -6.500000000000,         !- Vertex 4 Y-coordinate {m}
    5.700000000000;          !- Vertex 4 Z-coordinate {m}

BuildingSurface:Detailed,
    31AD4E,                  !- Name
    Wall,                    !- Surface Type
    Exterior Wall North,     !- Construction Name
    APTO04_P2,               !- Zone Name
    Outdoors,                !- Outside Boundary Condition
    ,                        !- Outside Boundary Condition Object
    SunExposed,              !- Sun Exposure
    WindExposed,             !- Wind Exposure
    ,                        !- View Factor to Ground
    4,                       !- Number of Vertices
    -31.600000000000,        !- Vertex 1 X-coordinate {m}
    -6.500000000000,         !- Vertex 1 Y-coordinate {m}
    5.700000000000,          !- Vertex 1 Z-coordinate {m}
    -31.600000000000,        !- Vertex 2 X-coordinate {m}
    -6.500000000000,         !- Vertex 2 Y-coordinate {m}
    2.850000000000,          !- Vertex 2 Z-coordinate {m}
    -24.800000000000,        !- Vertex 3 X-coordinate {m}
    -6.500000000000,         !- Vertex 3 Y-coordinate {m}
    2.850000000000,          !- Vertex 3 Z-coordinate {m}
    -24.800000000000,        !- Vertex 4 X-coordinate {m}
    -6.500000000000,         !- Vertex 4 Y-coordinate {m}
    5.700000000000;          !- Vertex 4 Z-coordinate {m}

BuildingSurface:Detailed,
    F488EC,                  !- Name
    Wall,                    !- Surface Type
    Interior Wall,           !- Construction Name
    APTO04_P2,               !- Zone Name
    Surface,                 !- Outside Boundary Condition
    73D203,                  !- Outside Boundary Condition Object
    NoSun,                   !- Sun Exposure
    NoWind,                  !- Wind Exposure
    ,                        !- View Factor to Ground
    4,                       !- Number of Vertices
    -24.800000000000,        !- Vertex 1 X-coordinate {m}
    -6.500000000000,         !- Vertex 1 Y-coordinate {m}
    5.700000000000,          !- Vertex 1 Z-coordinate {m}
    -24.800000000000,        !- Vertex 2 X-coordinate {m}
    -6.500000000000,         !- Vertex 2 Y-coordinate {m}
    2.850000000000,          !- Vertex 2 Z-coordinate {m}
    -24.800000000000,        !- Vertex 3 X-coordinate {m}
    -0.600000000000,         !- Vertex 3 Y-coordinate {m}
    2.850000000000,          !- Vertex 3 Z-coordinate {m}
    -24.800000000000,        !- Vertex 4 X-coordinate {m}
    -0.600000000000,         !- Vertex 4 Y-coordinate {m}
    5.700000000000;          !- Vertex 4 Z-coordinate {m}

BuildingSurface:Detailed,
    DFB9D5,                  !- Name
    Wall,                    !- Surface Type
    Exterior Wall South,     !- Construction Name
    APTO04_P2,               !- Zone Name
    Outdoors,                !- Outside Boundary Condition
    ,                        !- Outside Boundary Condition Object
    SunExposed,              !- Sun Exposure
    WindExposed,             !- Wind Exposure
    ,                        !- View Factor to Ground
    4,                       !- Number of Vertices
    -24.800000000000,        !- Vertex 1 X-coordinate {m}
    0.000000000000,          !- Vertex 1 Y-coordinate {m}
    5.700000000000,          !- Vertex 1 Z-coordinate {m}
    -24.800000000000,        !- Vertex 2 X-coordinate {m}
    0.000000000000,          !- Vertex 2 Y-coordinate {m}
    2.850000000000,          !- Vertex 2 Z-coordinate {m}
    -31.600000000000,        !- Vertex 3 X-coordinate {m}
    0.000000000000,          !- Vertex 3 Y-coordinate {m}
    2.850000000000,          !- Vertex 3 Z-coordinate {m}
    -31.600000000000,        !- Vertex 4 X-coordinate {m}
    0.000000000000,          !- Vertex 4 Y-coordinate {m}
    5.700000000000;          !- Vertex 4 Z-coordinate {m}

BuildingSurface:Detailed,
    565D55,                  !- Name
    Wall,                    !- Surface Type
    Exterior Wall East,      !- Construction Name
    APTO04_P2,               !- Zone Name
    Outdoors,                !- Outside Boundary Condition
    ,                        !- Outside Boundary Condition Object
    SunExposed,              !- Sun Exposure
    WindExposed,             !- Wind Exposure
    ,                        !- View Factor to Ground
    4,                       !- Number of Vertices
    -31.600000000000,        !- Vertex 1 X-coordinate {m}
    0.000000000000,          !- Vertex 1 Y-coordinate {m}
    5.700000000000,          !- Vertex 1 Z-coordinate {m}
    -31.600000000000,        !- Vertex 2 X-coordinate {m}
    0.000000000000,          !- Vertex 2 Y-coordinate {m}
    2.850000000000,          !- Vertex 2 Z-coordinate {m}
    -31.600000000000,        !- Vertex 3 X-coordinate {m}
    -6.500000000000,         !- Vertex 3 Y-coordinate {m}
    2.850000000000,          !- Vertex 3 Z-coordinate {m}
    -31.600000000000,        !- Vertex 4 X-coordinate {m}
    -6.500000000000,         !- Vertex 4 Y-coordinate {m}
    5.700000000000;          !- Vertex 4 Z-coordinate {m}

BuildingSurface:Detailed,
    DEBB26,                  !- Name
    Floor,                   !- Surface Type
    Interior Floor,          !- Construction Name
    APTO01_P2,               !- Zone Name
    Surface,                 !- Outside Boundary Condition
    D6319A,                  !- Outside Boundary Condition Object
    NoSun,                   !- Sun Exposure
    NoWind,                  !- Wind Exposure
    ,                        !- View Factor to Ground
    4,                       !- Number of Vertices
    -6.800000000000,         !- Vertex 1 X-coordinate {m}
    -6.500000000000,         !- Vertex 1 Y-coordinate {m}
    2.850000000000,          !- Vertex 1 Z-coordinate {m}
    -6.800000000000,         !- Vertex 2 X-coordinate {m}
    0.000000000000,          !- Vertex 2 Y-coordinate {m}
    2.850000000000,          !- Vertex 2 Z-coordinate {m}
    0.000000000000,          !- Vertex 3 X-coordinate {m}
    0.000000000000,          !- Vertex 3 Y-coordinate {m}
    2.850000000000,          !- Vertex 3 Z-coordinate {m}
    0.000000000000,          !- Vertex 4 X-coordinate {m}
    -6.500000000000,         !- Vertex 4 Y-coordinate {m}
    2.850000000000;          !- Vertex 4 Z-coordinate {m}

BuildingSurface:Detailed,
    F1DA59,                  !- Name
    Ceiling,                 !- Surface Type
    Interior Ceiling,        !- Construction Name
    APTO01_P2,               !- Zone Name
    Surface,                 !- Outside Boundary Condition
    FE9C73,                  !- Outside Boundary Condition Object
    NoSun,                   !- Sun Exposure
    NoWind,                  !- Wind Exposure
    ,                        !- View Factor to Ground
    4,                       !- Number of Vertices
    0.000000000000,          !- Vertex 1 X-coordinate {m}
    -6.500000000000,         !- Vertex 1 Y-coordinate {m}
    5.700000000000,          !- Vertex 1 Z-coordinate {m}
    0.000000000000,          !- Vertex 2 X-coordinate {m}
    0.000000000000,          !- Vertex 2 Y-coordinate {m}
    5.700000000000,          !- Vertex 2 Z-coordinate {m}
    -6.800000000000,         !- Vertex 3 X-coordinate {m}
    0.000000000000,          !- Vertex 3 Y-coordinate {m}
    5.700000000000,          !- Vertex 3 Z-coordinate {m}
    -6.800000000000,         !- Vertex 4 X-coordinate {m}
    -6.500000000000,         !- Vertex 4 Y-coordinate {m}
    5.700000000000;          !- Vertex 4 Z-coordinate {m}

BuildingSurface:Detailed,
    BBD2E3,                  !- Name
    Wall,                    !- Surface Type
    Exterior Wall South,     !- Construction Name
    APTO01_P2,               !- Zone Name
    Outdoors,                !- Outside Boundary Condition
    ,                        !- Outside Boundary Condition Object
    SunExposed,              !- Sun Exposure
    WindExposed,             !- Wind Exposure
    ,                        !- View Factor to Ground
    4,                       !- Number of Vertices
    0.000000000000,          !- Vertex 1 X-coordinate {m}
    0.000000000000,          !- Vertex 1 Y-coordinate {m}
    5.700000000000,          !- Vertex 1 Z-coordinate {m}
    0.000000000000,          !- Vertex 2 X-coordinate {m}
    0.000000000000,          !- Vertex 2 Y-coordinate {m}
    2.850000000000,          !- Vertex 2 Z-coordinate {m}
    -6.800000000000,         !- Vertex 3 X-coordinate {m}
    0.000000000000,          !- Vertex 3 Y-coordinate {m}
    2.850000000000,          !- Vertex 3 Z-coordinate {m}
    -6.800000000000,         !- Vertex 4 X-coordinate {m}
    0.000000000000,          !- Vertex 4 Y-coordinate {m}
    5.700000000000;          !- Vertex 4 Z-coordinate {m}

BuildingSurface:Detailed,
    DC6764,                  !- Name
    Wall,                    !- Surface Type
    Exterior Wall West,      !- Construction Name
    APTO01_P2,               !- Zone Name
    Outdoors,                !- Outside Boundary Condition
    ,                        !- Outside Boundary Condition Object
    SunExposed,              !- Sun Exposure
    WindExposed,             !- Wind Exposure
    ,                        !- View Factor to Ground
    4,                       !- Number of Vertices
    0.000000000000,          !- Vertex 1 X-coordinate {m}
    -6.500000000000,         !- Vertex 1 Y-coordinate {m}
    5.700000000000,          !- Vertex 1 Z-coordinate {m}
    0.000000000000,          !- Vertex 2 X-coordinate {m}
    -6.500000000000,         !- Vertex 2 Y-coordinate {m}
    2.850000000000,          !- Vertex 2 Z-coordinate {m}
    0.000000000000,          !- Vertex 3 X-coordinate {m}
    0.000000000000,          !- Vertex 3 Y-coordinate {m}
    2.850000000000,          !- Vertex 3 Z-coordinate {m}
    0.000000000000,          !- Vertex 4 X-coordinate {m}
    0.000000000000,          !- Vertex 4 Y-coordinate {m}
    5.700000000000;          !- Vertex 4 Z-coordinate {m}

BuildingSurface:Detailed,
    196591,                  !- Name
    Wall,                    !- Surface Type
    Exterior Wall North,     !- Construction Name
    APTO01_P2,               !- Zone Name
    Outdoors,                !- Outside Boundary Condition
    ,                        !- Outside Boundary Condition Object
    SunExposed,              !- Sun Exposure
    WindExposed,             !- Wind Exposure
    ,                        !- View Factor to Ground
    4,                       !- Number of Vertices
    -6.800000000000,         !- Vertex 1 X-coordinate {m}
    -6.500000000000,         !- Vertex 1 Y-coordinate {m}
    5.700000000000,          !- Vertex 1 Z-coordinate {m}
    -6.800000000000,         !- Vertex 2 X-coordinate {m}
    -6.500000000000,         !- Vertex 2 Y-coordinate {m}
    2.850000000000,          !- Vertex 2 Z-coordinate {m}
    0.000000000000,          !- Vertex 3 X-coordinate {m}
    -6.500000000000,         !- Vertex 3 Y-coordinate {m}
    2.850000000000,          !- Vertex 3 Z-coordinate {m}
    0.000000000000,          !- Vertex 4 X-coordinate {m}
    -6.500000000000,         !- Vertex 4 Y-coordinate {m}
    5.700000000000;          !- Vertex 4 Z-coordinate {m}

BuildingSurface:Detailed,
    DA54D3,                  !- Name
    Wall,                    !- Surface Type
    Exterior Wall East,      !- Construction Name
    APTO01_P2,               !- Zone Name
    Outdoors,                !- Outside Boundary Condition
    ,                        !- Outside Boundary Condition Object
    SunExposed,              !- Sun Exposure
    WindExposed,             !- Wind Exposure
    ,                        !- View Factor to Ground
    4,                       !- Number of Vertices
    -6.800000000000,         !- Vertex 1 X-coordinate {m}
    0.000000000000,          !- Vertex 1 Y-coordinate {m}
    5.700000000000,          !- Vertex 1 Z-coordinate {m}
    -6.800000000000,         !- Vertex 2 X-coordinate {m}
    0.000000000000,          !- Vertex 2 Y-coordinate {m}
    2.850000000000,          !- Vertex 2 Z-coordinate {m}
    -6.800000000000,         !- Vertex 3 X-coordinate {m}
    -0.600000000000,         !- Vertex 3 Y-coordinate {m}
    2.850000000000,          !- Vertex 3 Z-coordinate {m}
    -6.800000000000,         !- Vertex 4 X-coordinate {m}
    -0.600000000000,         !- Vertex 4 Y-coordinate {m}
    5.700000000000;          !- Vertex 4 Z-coordinate {m}

BuildingSurface:Detailed,
    F78796,                  !- Name
    Floor,                   !- Surface Type
    Interior Floor,          !- Construction Name
    APTO03_P2,               !- Zone Name
    Surface,                 !- Outside Boundary Condition
    FFC9CD,                  !- Outside Boundary Condition Object
    NoSun,                   !- Sun Exposure
    NoWind,                  !- Wind Exposure
    ,                        !- View Factor to Ground
    4,                       !- Number of Vertices
    -22.600000000000,        !- Vertex 1 X-coordinate {m}
    -6.500000000000,         !- Vertex 1 Y-coordinate {m}
    2.850000000000,          !- Vertex 1 Z-coordinate {m}
    -22.600000000000,        !- Vertex 2 X-coordinate {m}
    0.000000000000,          !- Vertex 2 Y-coordinate {m}
    2.850000000000,          !- Vertex 2 Z-coordinate {m}
    -15.800000000000,        !- Vertex 3 X-coordinate {m}
    0.000000000000,          !- Vertex 3 Y-coordinate {m}
    2.850000000000,          !- Vertex 3 Z-coordinate {m}
    -15.800000000000,        !- Vertex 4 X-coordinate {m}
    -6.500000000000,         !- Vertex 4 Y-coordinate {m}
    2.850000000000;          !- Vertex 4 Z-coordinate {m}

BuildingSurface:Detailed,
    19217A,                  !- Name
    Ceiling,                 !- Surface Type
    Interior Ceiling,        !- Construction Name
    APTO03_P2,               !- Zone Name
    Surface,                 !- Outside Boundary Condition
    24A443,                  !- Outside Boundary Condition Object
    NoSun,                   !- Sun Exposure
    NoWind,                  !- Wind Exposure
    ,                        !- View Factor to Ground
    4,                       !- Number of Vertices
    -15.800000000000,        !- Vertex 1 X-coordinate {m}
    -6.500000000000,         !- Vertex 1 Y-coordinate {m}
    5.700000000000,          !- Vertex 1 Z-coordinate {m}
    -15.800000000000,        !- Vertex 2 X-coordinate {m}
    0.000000000000,          !- Vertex 2 Y-coordinate {m}
    5.700000000000,          !- Vertex 2 Z-coordinate {m}
    -22.600000000000,        !- Vertex 3 X-coordinate {m}
    0.000000000000,          !- Vertex 3 Y-coordinate {m}
    5.700000000000,          !- Vertex 3 Z-coordinate {m}
    -22.600000000000,        !- Vertex 4 X-coordinate {m}
    -6.500000000000,         !- Vertex 4 Y-coordinate {m}
    5.700000000000;          !- Vertex 4 Z-coordinate {m}

BuildingSurface:Detailed,
    3D00F9,                  !- Name
    Wall,                    !- Surface Type
    Exterior Wall South,     !- Construction Name
    APTO03_P2,               !- Zone Name
    Outdoors,                !- Outside Boundary Condition
    ,                        !- Outside Boundary Condition Object
    SunExposed,              !- Sun Exposure
    WindExposed,             !- Wind Exposure
    ,                        !- View Factor to Ground
    4,                       !- Number of Vertices
    -15.800000000000,        !- Vertex 1 X-coordinate {m}
    0.000000000000,          !- Vertex 1 Y-coordinate {m}
    5.700000000000,          !- Vertex 1 Z-coordinate {m}
    -15.800000000000,        !- Vertex 2 X-coordinate {m}
    0.000000000000,          !- Vertex 2 Y-coordinate {m}
    2.850000000000,          !- Vertex 2 Z-coordinate {m}
    -22.600000000000,        !- Vertex 3 X-coordinate {m}
    0.000000000000,          !- Vertex 3 Y-coordinate {m}
    2.850000000000,          !- Vertex 3 Z-coordinate {m}
    -22.600000000000,        !- Vertex 4 X-coordinate {m}
    0.000000000000,          !- Vertex 4 Y-coordinate {m}
    5.700000000000;          !- Vertex 4 Z-coordinate {m}

BuildingSurface:Detailed,
    DD3002,                  !- Name
    Wall,                    !- Surface Type
    Interior Wall,           !- Construction Name
    APTO03_P2,               !- Zone Name
    Surface,                 !- Outside Boundary Condition
    9127D4,                  !- Outside Boundary Condition Object
    NoSun,                   !- Sun Exposure
    NoWind,                  !- Wind Exposure
    ,                        !- View Factor to Ground
    4,                       !- Number of Vertices
    -15.800000000000,        !- Vertex 1 X-coordinate {m}
    -6.500000000000,         !- Vertex 1 Y-coordinate {m}
    5.700000000000,          !- Vertex 1 Z-coordinate {m}
    -15.800000000000,        !- Vertex 2 X-coordinate {m}
    -6.500000000000,         !- Vertex 2 Y-coordinate {m}
    2.850000000000,          !- Vertex 2 Z-coordinate {m}
    -15.800000000000,        !- Vertex 3 X-coordinate {m}
    0.000000000000,          !- Vertex 3 Y-coordinate {m}
    2.850000000000,          !- Vertex 3 Z-coordinate {m}
    -15.800000000000,        !- Vertex 4 X-coordinate {m}
    0.000000000000,          !- Vertex 4 Y-coordinate {m}
    5.700000000000;          !- Vertex 4 Z-coordinate {m}

BuildingSurface:Detailed,
    41C59D,                  !- Name
    Wall,                    !- Surface Type
    Exterior Wall North,     !- Construction Name
    APTO03_P2,               !- Zone Name
    Outdoors,                !- Outside Boundary Condition
    ,                        !- Outside Boundary Condition Object
    SunExposed,              !- Sun Exposure
    WindExposed,             !- Wind Exposure
    ,                        !- View Factor to Ground
    4,                       !- Number of Vertices
    -22.600000000000,        !- Vertex 1 X-coordinate {m}
    -6.500000000000,         !- Vertex 1 Y-coordinate {m}
    5.700000000000,          !- Vertex 1 Z-coordinate {m}
    -22.600000000000,        !- Vertex 2 X-coordinate {m}
    -6.500000000000,         !- Vertex 2 Y-coordinate {m}
    2.850000000000,          !- Vertex 2 Z-coordinate {m}
    -15.800000000000,        !- Vertex 3 X-coordinate {m}
    -6.500000000000,         !- Vertex 3 Y-coordinate {m}
    2.850000000000,          !- Vertex 3 Z-coordinate {m}
    -15.800000000000,        !- Vertex 4 X-coordinate {m}
    -6.500000000000,         !- Vertex 4 Y-coordinate {m}
    5.700000000000;          !- Vertex 4 Z-coordinate {m}

BuildingSurface:Detailed,
    3D6DF0,                  !- Name
    Wall,                    !- Surface Type
    Exterior Wall East,      !- Construction Name
    APTO03_P2,               !- Zone Name
    Outdoors,                !- Outside Boundary Condition
    ,                        !- Outside Boundary Condition Object
    SunExposed,              !- Sun Exposure
    WindExposed,             !- Wind Exposure
    ,                        !- View Factor to Ground
    4,                       !- Number of Vertices
    -22.600000000000,        !- Vertex 1 X-coordinate {m}
    0.000000000000,          !- Vertex 1 Y-coordinate {m}
    5.700000000000,          !- Vertex 1 Z-coordinate {m}
    -22.600000000000,        !- Vertex 2 X-coordinate {m}
    0.000000000000,          !- Vertex 2 Y-coordinate {m}
    2.850000000000,          !- Vertex 2 Z-coordinate {m}
    -22.600000000000,        !- Vertex 3 X-coordinate {m}
    -0.600000000000,         !- Vertex 3 Y-coordinate {m}
    2.850000000000,          !- Vertex 3 Z-coordinate {m}
    -22.600000000000,        !- Vertex 4 X-coordinate {m}
    -0.600000000000,         !- Vertex 4 Y-coordinate {m}
    5.700000000000;          !- Vertex 4 Z-coordinate {m}

BuildingSurface:Detailed,
    E2B3D3,                  !- Name
    Floor,                   !- Surface Type
    Interior Floor,          !- Construction Name
    CIRCUL01_P2,             !- Zone Name
    Surface,                 !- Outside Boundary Condition
    C87D78,                  !- Outside Boundary Condition Object
    NoSun,                   !- Sun Exposure
    NoWind,                  !- Wind Exposure
    ,                        !- View Factor to Ground
    4,                       !- Number of Vertices
    -9.000000000000,         !- Vertex 1 X-coordinate {m}
    -6.500000000000,         !- Vertex 1 Y-coordinate {m}
    2.850000000000,          !- Vertex 1 Z-coordinate {m}
    -9.000000000000,         !- Vertex 2 X-coordinate {m}
    -0.600000000000,         !- Vertex 2 Y-coordinate {m}
    2.850000000000,          !- Vertex 2 Z-coordinate {m}
    -6.800000000000,         !- Vertex 3 X-coordinate {m}
    -0.600000000000,         !- Vertex 3 Y-coordinate {m}
    2.850000000000,          !- Vertex 3 Z-coordinate {m}
    -6.800000000000,         !- Vertex 4 X-coordinate {m}
    -6.500000000000,         !- Vertex 4 Y-coordinate {m}
    2.850000000000;          !- Vertex 4 Z-coordinate {m}

BuildingSurface:Detailed,
    2C7E55,                  !- Name
    Ceiling,                 !- Surface Type
    Interior Ceiling,        !- Construction Name
    CIRCUL01_P2,             !- Zone Name
    Surface,                 !- Outside Boundary Condition
    94979D,                  !- Outside Boundary Condition Object
    NoSun,                   !- Sun Exposure
    NoWind,                  !- Wind Exposure
    ,                        !- View Factor to Ground
    4,                       !- Number of Vertices
    -6.800000000000,         !- Vertex 1 X-coordinate {m}
    -6.500000000000,         !- Vertex 1 Y-coordinate {m}
    5.700000000000,          !- Vertex 1 Z-coordinate {m}
    -6.800000000000,         !- Vertex 2 X-coordinate {m}
    -0.600000000000,         !- Vertex 2 Y-coordinate {m}
    5.700000000000,          !- Vertex 2 Z-coordinate {m}
    -9.000000000000,         !- Vertex 3 X-coordinate {m}
    -0.600000000000,         !- Vertex 3 Y-coordinate {m}
    5.700000000000,          !- Vertex 3 Z-coordinate {m}
    -9.000000000000,         !- Vertex 4 X-coordinate {m}
    -6.500000000000,         !- Vertex 4 Y-coordinate {m}
    5.700000000000;          !- Vertex 4 Z-coordinate {m}

BuildingSurface:Detailed,
    AE3277,                  !- Name
    Wall,                    !- Surface Type
    Exterior Wall North,     !- Construction Name
    CIRCUL01_P2,             !- Zone Name
    Outdoors,                !- Outside Boundary Condition
    ,                        !- Outside Boundary Condition Object
    SunExposed,              !- Sun Exposure
    WindExposed,             !- Wind Exposure
    ,                        !- View Factor to Ground
    4,                       !- Number of Vertices
    -9.000000000000,         !- Vertex 1 X-coordinate {m}
    -6.500000000000,         !- Vertex 1 Y-coordinate {m}
    5.700000000000,          !- Vertex 1 Z-coordinate {m}
    -9.000000000000,         !- Vertex 2 X-coordinate {m}
    -6.500000000000,         !- Vertex 2 Y-coordinate {m}
    2.850000000000,          !- Vertex 2 Z-coordinate {m}
    -6.800000000000,         !- Vertex 3 X-coordinate {m}
    -6.500000000000,         !- Vertex 3 Y-coordinate {m}
    2.850000000000,          !- Vertex 3 Z-coordinate {m}
    -6.800000000000,         !- Vertex 4 X-coordinate {m}
    -6.500000000000,         !- Vertex 4 Y-coordinate {m}
    5.700000000000;          !- Vertex 4 Z-coordinate {m}

BuildingSurface:Detailed,
    BEBCBE,                  !- Name
    Wall,                    !- Surface Type
    Interior Wall,           !- Construction Name
    CIRCUL01_P2,             !- Zone Name
    Surface,                 !- Outside Boundary Condition
    C2EA4E,                  !- Outside Boundary Condition Object
    NoSun,                   !- Sun Exposure
    NoWind,                  !- Wind Exposure
    ,                        !- View Factor to Ground
    4,                       !- Number of Vertices
    -9.000000000000,         !- Vertex 1 X-coordinate {m}
    -0.600000000000,         !- Vertex 1 Y-coordinate {m}
    5.700000000000,          !- Vertex 1 Z-coordinate {m}
    -9.000000000000,         !- Vertex 2 X-coordinate {m}
    -0.600000000000,         !- Vertex 2 Y-coordinate {m}
    2.850000000000,          !- Vertex 2 Z-coordinate {m}
    -9.000000000000,         !- Vertex 3 X-coordinate {m}
    -6.500000000000,         !- Vertex 3 Y-coordinate {m}
    2.850000000000,          !- Vertex 3 Z-coordinate {m}
    -9.000000000000,         !- Vertex 4 X-coordinate {m}
    -6.500000000000,         !- Vertex 4 Y-coordinate {m}
    5.700000000000;          !- Vertex 4 Z-coordinate {m}

BuildingSurface:Detailed,
    F1FB61,                  !- Name
    Wall,                    !- Surface Type
    Exterior Wall South,     !- Construction Name
    CIRCUL01_P2,             !- Zone Name
    Outdoors,                !- Outside Boundary Condition
    ,                        !- Outside Boundary Condition Object
    SunExposed,              !- Sun Exposure
    WindExposed,             !- Wind Exposure
    ,                        !- View Factor to Ground
    4,                       !- Number of Vertices
    -6.800000000000,         !- Vertex 1 X-coordinate {m}
    -0.600000000000,         !- Vertex 1 Y-coordinate {m}
    5.700000000000,          !- Vertex 1 Z-coordinate {m}
    -6.800000000000,         !- Vertex 2 X-coordinate {m}
    -0.600000000000,         !- Vertex 2 Y-coordinate {m}
    2.850000000000,          !- Vertex 2 Z-coordinate {m}
    -9.000000000000,         !- Vertex 3 X-coordinate {m}
    -0.600000000000,         !- Vertex 3 Y-coordinate {m}
    2.850000000000,          !- Vertex 3 Z-coordinate {m}
    -9.000000000000,         !- Vertex 4 X-coordinate {m}
    -0.600000000000,         !- Vertex 4 Y-coordinate {m}
    5.700000000000;          !- Vertex 4 Z-coordinate {m}

BuildingSurface:Detailed,
    B182D2,                  !- Name
    Wall,                    !- Surface Type
    Interior Wall,           !- Construction Name
    CIRCUL01_P2,             !- Zone Name
    Surface,                 !- Outside Boundary Condition
    F4B706,                  !- Outside Boundary Condition Object
    NoSun,                   !- Sun Exposure
    NoWind,                  !- Wind Exposure
    ,                        !- View Factor to Ground
    4,                       !- Number of Vertices
    -6.800000000000,         !- Vertex 1 X-coordinate {m}
    -6.500000000000,         !- Vertex 1 Y-coordinate {m}
    5.700000000000,          !- Vertex 1 Z-coordinate {m}
    -6.800000000000,         !- Vertex 2 X-coordinate {m}
    -6.500000000000,         !- Vertex 2 Y-coordinate {m}
    2.850000000000,          !- Vertex 2 Z-coordinate {m}
    -6.800000000000,         !- Vertex 3 X-coordinate {m}
    -0.600000000000,         !- Vertex 3 Y-coordinate {m}
    2.850000000000,          !- Vertex 3 Z-coordinate {m}
    -6.800000000000,         !- Vertex 4 X-coordinate {m}
    -0.600000000000,         !- Vertex 4 Y-coordinate {m}
    5.700000000000;          !- Vertex 4 Z-coordinate {m}

BuildingSurface:Detailed,
    88564B,                  !- Name
    Floor,                   !- Surface Type
    Interior Floor,          !- Construction Name
    APTO04_P3,               !- Zone Name
    Surface,                 !- Outside Boundary Condition
    19BF95,                  !- Outside Boundary Condition Object
    NoSun,                   !- Sun Exposure
    NoWind,                  !- Wind Exposure
    ,                        !- View Factor to Ground
    4,                       !- Number of Vertices
    -31.600000000000,        !- Vertex 1 X-coordinate {m}
    -6.500000000000,         !- Vertex 1 Y-coordinate {m}
    5.700000000000,          !- Vertex 1 Z-coordinate {m}
    -31.600000000000,        !- Vertex 2 X-coordinate {m}
    0.000000000000,          !- Vertex 2 Y-coordinate {m}
    5.700000000000,          !- Vertex 2 Z-coordinate {m}
    -24.800000000000,        !- Vertex 3 X-coordinate {m}
    0.000000000000,          !- Vertex 3 Y-coordinate {m}
    5.700000000000,          !- Vertex 3 Z-coordinate {m}
    -24.800000000000,        !- Vertex 4 X-coordinate {m}
    -6.500000000000,         !- Vertex 4 Y-coordinate {m}
    5.700000000000;          !- Vertex 4 Z-coordinate {m}

BuildingSurface:Detailed,
    3CFC79,                  !- Name
    Ceiling,                 !- Surface Type
    Interior Ceiling,        !- Construction Name
    APTO04_P3,               !- Zone Name
    Surface,                 !- Outside Boundary Condition
    E23395,                  !- Outside Boundary Condition Object
    NoSun,                   !- Sun Exposure
    NoWind,                  !- Wind Exposure
    ,                        !- View Factor to Ground
    4,                       !- Number of Vertices
    -24.800000000000,        !- Vertex 1 X-coordinate {m}
    -6.500000000000,         !- Vertex 1 Y-coordinate {m}
    8.550000000000,          !- Vertex 1 Z-coordinate {m}
    -24.800000000000,        !- Vertex 2 X-coordinate {m}
    0.000000000000,          !- Vertex 2 Y-coordinate {m}
    8.550000000000,          !- Vertex 2 Z-coordinate {m}
    -31.600000000000,        !- Vertex 3 X-coordinate {m}
    0.000000000000,          !- Vertex 3 Y-coordinate {m}
    8.550000000000,          !- Vertex 3 Z-coordinate {m}
    -31.600000000000,        !- Vertex 4 X-coordinate {m}
    -6.500000000000,         !- Vertex 4 Y-coordinate {m}
    8.550000000000;          !- Vertex 4 Z-coordinate {m}

BuildingSurface:Detailed,
    EADA62,                  !- Name
    Wall,                    !- Surface Type
    Exterior Wall North,     !- Construction Name
    APTO04_P3,               !- Zone Name
    Outdoors,                !- Outside Boundary Condition
    ,                        !- Outside Boundary Condition Object
    SunExposed,              !- Sun Exposure
    WindExposed,             !- Wind Exposure
    ,                        !- View Factor to Ground
    4,                       !- Number of Vertices
    -31.600000000000,        !- Vertex 1 X-coordinate {m}
    -6.500000000000,         !- Vertex 1 Y-coordinate {m}
    8.550000000000,          !- Vertex 1 Z-coordinate {m}
    -31.600000000000,        !- Vertex 2 X-coordinate {m}
    -6.500000000000,         !- Vertex 2 Y-coordinate {m}
    5.700000000000,          !- Vertex 2 Z-coordinate {m}
    -24.800000000000,        !- Vertex 3 X-coordinate {m}
    -6.500000000000,         !- Vertex 3 Y-coordinate {m}
    5.700000000000,          !- Vertex 3 Z-coordinate {m}
    -24.800000000000,        !- Vertex 4 X-coordinate {m}
    -6.500000000000,         !- Vertex 4 Y-coordinate {m}
    8.550000000000;          !- Vertex 4 Z-coordinate {m}

BuildingSurface:Detailed,
    FEAB03,                  !- Name
    Wall,                    !- Surface Type
    Interior Wall,           !- Construction Name
    APTO04_P3,               !- Zone Name
    Surface,                 !- Outside Boundary Condition
    4462C5,                  !- Outside Boundary Condition Object
    NoSun,                   !- Sun Exposure
    NoWind,                  !- Wind Exposure
    ,                        !- View Factor to Ground
    4,                       !- Number of Vertices
    -24.800000000000,        !- Vertex 1 X-coordinate {m}
    -6.500000000000,         !- Vertex 1 Y-coordinate {m}
    8.550000000000,          !- Vertex 1 Z-coordinate {m}
    -24.800000000000,        !- Vertex 2 X-coordinate {m}
    -6.500000000000,         !- Vertex 2 Y-coordinate {m}
    5.700000000000,          !- Vertex 2 Z-coordinate {m}
    -24.800000000000,        !- Vertex 3 X-coordinate {m}
    -0.600000000000,         !- Vertex 3 Y-coordinate {m}
    5.700000000000,          !- Vertex 3 Z-coordinate {m}
    -24.800000000000,        !- Vertex 4 X-coordinate {m}
    -0.600000000000,         !- Vertex 4 Y-coordinate {m}
    8.550000000000;          !- Vertex 4 Z-coordinate {m}

BuildingSurface:Detailed,
    19C449,                  !- Name
    Wall,                    !- Surface Type
    Exterior Wall South,     !- Construction Name
    APTO04_P3,               !- Zone Name
    Outdoors,                !- Outside Boundary Condition
    ,                        !- Outside Boundary Condition Object
    SunExposed,              !- Sun Exposure
    WindExposed,             !- Wind Exposure
    ,                        !- View Factor to Ground
    4,                       !- Number of Vertices
    -24.800000000000,        !- Vertex 1 X-coordinate {m}
    0.000000000000,          !- Vertex 1 Y-coordinate {m}
    8.550000000000,          !- Vertex 1 Z-coordinate {m}
    -24.800000000000,        !- Vertex 2 X-coordinate {m}
    0.000000000000,          !- Vertex 2 Y-coordinate {m}
    5.700000000000,          !- Vertex 2 Z-coordinate {m}
    -31.600000000000,        !- Vertex 3 X-coordinate {m}
    0.000000000000,          !- Vertex 3 Y-coordinate {m}
    5.700000000000,          !- Vertex 3 Z-coordinate {m}
    -31.600000000000,        !- Vertex 4 X-coordinate {m}
    0.000000000000,          !- Vertex 4 Y-coordinate {m}
    8.550000000000;          !- Vertex 4 Z-coordinate {m}

BuildingSurface:Detailed,
    85493B,                  !- Name
    Wall,                    !- Surface Type
    Exterior Wall East,      !- Construction Name
    APTO04_P3,               !- Zone Name
    Outdoors,                !- Outside Boundary Condition
    ,                        !- Outside Boundary Condition Object
    SunExposed,              !- Sun Exposure
    WindExposed,             !- Wind Exposure
    ,                        !- View Factor to Ground
    4,                       !- Number of Vertices
    -31.600000000000,        !- Vertex 1 X-coordinate {m}
    0.000000000000,          !- Vertex 1 Y-coordinate {m}
    8.550000000000,          !- Vertex 1 Z-coordinate {m}
    -31.600000000000,        !- Vertex 2 X-coordinate {m}
    0.000000000000,          !- Vertex 2 Y-coordinate {m}
    5.700000000000,          !- Vertex 2 Z-coordinate {m}
    -31.600000000000,        !- Vertex 3 X-coordinate {m}
    -6.500000000000,         !- Vertex 3 Y-coordinate {m}
    5.700000000000,          !- Vertex 3 Z-coordinate {m}
    -31.600000000000,        !- Vertex 4 X-coordinate {m}
    -6.500000000000,         !- Vertex 4 Y-coordinate {m}
    8.550000000000;          !- Vertex 4 Z-coordinate {m}

BuildingSurface:Detailed,
    94979D,                  !- Name
    Floor,                   !- Surface Type
    Interior Floor,          !- Construction Name
    CIRCUL01_P3,             !- Zone Name
    Surface,                 !- Outside Boundary Condition
    2C7E55,                  !- Outside Boundary Condition Object
    NoSun,                   !- Sun Exposure
    NoWind,                  !- Wind Exposure
    ,                        !- View Factor to Ground
    4,                       !- Number of Vertices
    -9.000000000000,         !- Vertex 1 X-coordinate {m}
    -6.500000000000,         !- Vertex 1 Y-coordinate {m}
    5.700000000000,          !- Vertex 1 Z-coordinate {m}
    -9.000000000000,         !- Vertex 2 X-coordinate {m}
    -0.600000000000,         !- Vertex 2 Y-coordinate {m}
    5.700000000000,          !- Vertex 2 Z-coordinate {m}
    -6.800000000000,         !- Vertex 3 X-coordinate {m}
    -0.600000000000,         !- Vertex 3 Y-coordinate {m}
    5.700000000000,          !- Vertex 3 Z-coordinate {m}
    -6.800000000000,         !- Vertex 4 X-coordinate {m}
    -6.500000000000,         !- Vertex 4 Y-coordinate {m}
    5.700000000000;          !- Vertex 4 Z-coordinate {m}

BuildingSurface:Detailed,
    D60BFB,                  !- Name
    Ceiling,                 !- Surface Type
    Interior Ceiling,        !- Construction Name
    CIRCUL01_P3,             !- Zone Name
    Surface,                 !- Outside Boundary Condition
    C98D2B,                  !- Outside Boundary Condition Object
    NoSun,                   !- Sun Exposure
    NoWind,                  !- Wind Exposure
    ,                        !- View Factor to Ground
    4,                       !- Number of Vertices
    -6.800000000000,         !- Vertex 1 X-coordinate {m}
    -6.500000000000,         !- Vertex 1 Y-coordinate {m}
    8.550000000000,          !- Vertex 1 Z-coordinate {m}
    -6.800000000000,         !- Vertex 2 X-coordinate {m}
    -0.600000000000,         !- Vertex 2 Y-coordinate {m}
    8.550000000000,          !- Vertex 2 Z-coordinate {m}
    -9.000000000000,         !- Vertex 3 X-coordinate {m}
    -0.600000000000,         !- Vertex 3 Y-coordinate {m}
    8.550000000000,          !- Vertex 3 Z-coordinate {m}
    -9.000000000000,         !- Vertex 4 X-coordinate {m}
    -6.500000000000,         !- Vertex 4 Y-coordinate {m}
    8.550000000000;          !- Vertex 4 Z-coordinate {m}

BuildingSurface:Detailed,
    3075DF,                  !- Name
    Wall,                    !- Surface Type
    Exterior Wall North,     !- Construction Name
    CIRCUL01_P3,             !- Zone Name
    Outdoors,                !- Outside Boundary Condition
    ,                        !- Outside Boundary Condition Object
    SunExposed,              !- Sun Exposure
    WindExposed,             !- Wind Exposure
    ,                        !- View Factor to Ground
    4,                       !- Number of Vertices
    -9.000000000000,         !- Vertex 1 X-coordinate {m}
    -6.500000000000,         !- Vertex 1 Y-coordinate {m}
    8.550000000000,          !- Vertex 1 Z-coordinate {m}
    -9.000000000000,         !- Vertex 2 X-coordinate {m}
    -6.500000000000,         !- Vertex 2 Y-coordinate {m}
    5.700000000000,          !- Vertex 2 Z-coordinate {m}
    -6.800000000000,         !- Vertex 3 X-coordinate {m}
    -6.500000000000,         !- Vertex 3 Y-coordinate {m}
    5.700000000000,          !- Vertex 3 Z-coordinate {m}
    -6.800000000000,         !- Vertex 4 X-coordinate {m}
    -6.500000000000,         !- Vertex 4 Y-coordinate {m}
    8.550000000000;          !- Vertex 4 Z-coordinate {m}

BuildingSurface:Detailed,
    BAEDBE,                  !- Name
    Wall,                    !- Surface Type
    Interior Wall,           !- Construction Name
    CIRCUL01_P3,             !- Zone Name
    Surface,                 !- Outside Boundary Condition
    58B6E7,                  !- Outside Boundary Condition Object
    NoSun,                   !- Sun Exposure
    NoWind,                  !- Wind Exposure
    ,                        !- View Factor to Ground
    4,                       !- Number of Vertices
    -9.000000000000,         !- Vertex 1 X-coordinate {m}
    -0.600000000000,         !- Vertex 1 Y-coordinate {m}
    8.550000000000,          !- Vertex 1 Z-coordinate {m}
    -9.000000000000,         !- Vertex 2 X-coordinate {m}
    -0.600000000000,         !- Vertex 2 Y-coordinate {m}
    5.700000000000,          !- Vertex 2 Z-coordinate {m}
    -9.000000000000,         !- Vertex 3 X-coordinate {m}
    -6.500000000000,         !- Vertex 3 Y-coordinate {m}
    5.700000000000,          !- Vertex 3 Z-coordinate {m}
    -9.000000000000,         !- Vertex 4 X-coordinate {m}
    -6.500000000000,         !- Vertex 4 Y-coordinate {m}
    8.550000000000;          !- Vertex 4 Z-coordinate {m}

BuildingSurface:Detailed,
    58C482,                  !- Name
    Wall,                    !- Surface Type
    Exterior Wall South,     !- Construction Name
    CIRCUL01_P3,             !- Zone Name
    Outdoors,                !- Outside Boundary Condition
    ,                        !- Outside Boundary Condition Object
    SunExposed,              !- Sun Exposure
    WindExposed,             !- Wind Exposure
    ,                        !- View Factor to Ground
    4,                       !- Number of Vertices
    -6.800000000000,         !- Vertex 1 X-coordinate {m}
    -0.600000000000,         !- Vertex 1 Y-coordinate {m}
    8.550000000000,          !- Vertex 1 Z-coordinate {m}
    -6.800000000000,         !- Vertex 2 X-coordinate {m}
    -0.600000000000,         !- Vertex 2 Y-coordinate {m}
    5.700000000000,          !- Vertex 2 Z-coordinate {m}
    -9.000000000000,         !- Vertex 3 X-coordinate {m}
    -0.600000000000,         !- Vertex 3 Y-coordinate {m}
    5.700000000000,          !- Vertex 3 Z-coordinate {m}
    -9.000000000000,         !- Vertex 4 X-coordinate {m}
    -0.600000000000,         !- Vertex 4 Y-coordinate {m}
    8.550000000000;          !- Vertex 4 Z-coordinate {m}

BuildingSurface:Detailed,
    C13B12,                  !- Name
    Wall,                    !- Surface Type
    Interior Wall,           !- Construction Name
    CIRCUL01_P3,             !- Zone Name
    Surface,                 !- Outside Boundary Condition
    A8EC42,                  !- Outside Boundary Condition Object
    NoSun,                   !- Sun Exposure
    NoWind,                  !- Wind Exposure
    ,                        !- View Factor to Ground
    4,                       !- Number of Vertices
    -6.800000000000,         !- Vertex 1 X-coordinate {m}
    -6.500000000000,         !- Vertex 1 Y-coordinate {m}
    8.550000000000,          !- Vertex 1 Z-coordinate {m}
    -6.800000000000,         !- Vertex 2 X-coordinate {m}
    -6.500000000000,         !- Vertex 2 Y-coordinate {m}
    5.700000000000,          !- Vertex 2 Z-coordinate {m}
    -6.800000000000,         !- Vertex 3 X-coordinate {m}
    -0.600000000000,         !- Vertex 3 Y-coordinate {m}
    5.700000000000,          !- Vertex 3 Z-coordinate {m}
    -6.800000000000,         !- Vertex 4 X-coordinate {m}
    -0.600000000000,         !- Vertex 4 Y-coordinate {m}
    8.550000000000;          !- Vertex 4 Z-coordinate {m}

BuildingSurface:Detailed,
    AA2349,                  !- Name
    Floor,                   !- Surface Type
    Interior Floor,          !- Construction Name
    CIRCUL02_P3,             !- Zone Name
    Surface,                 !- Outside Boundary Condition
    B40245,                  !- Outside Boundary Condition Object
    NoSun,                   !- Sun Exposure
    NoWind,                  !- Wind Exposure
    ,                        !- View Factor to Ground
    4,                       !- Number of Vertices
    -24.800000000000,        !- Vertex 1 X-coordinate {m}
    -6.500000000000,         !- Vertex 1 Y-coordinate {m}
    5.700000000000,          !- Vertex 1 Z-coordinate {m}
    -24.800000000000,        !- Vertex 2 X-coordinate {m}
    -0.600000000000,         !- Vertex 2 Y-coordinate {m}
    5.700000000000,          !- Vertex 2 Z-coordinate {m}
    -22.600000000000,        !- Vertex 3 X-coordinate {m}
    -0.600000000000,         !- Vertex 3 Y-coordinate {m}
    5.700000000000,          !- Vertex 3 Z-coordinate {m}
    -22.600000000000,        !- Vertex 4 X-coordinate {m}
    -6.500000000000,         !- Vertex 4 Y-coordinate {m}
    5.700000000000;          !- Vertex 4 Z-coordinate {m}

BuildingSurface:Detailed,
    569278,                  !- Name
    Ceiling,                 !- Surface Type
    Interior Ceiling,        !- Construction Name
    CIRCUL02_P3,             !- Zone Name
    Surface,                 !- Outside Boundary Condition
    D429D1,                  !- Outside Boundary Condition Object
    NoSun,                   !- Sun Exposure
    NoWind,                  !- Wind Exposure
    ,                        !- View Factor to Ground
    4,                       !- Number of Vertices
    -22.600000000000,        !- Vertex 1 X-coordinate {m}
    -6.500000000000,         !- Vertex 1 Y-coordinate {m}
    8.550000000000,          !- Vertex 1 Z-coordinate {m}
    -22.600000000000,        !- Vertex 2 X-coordinate {m}
    -0.600000000000,         !- Vertex 2 Y-coordinate {m}
    8.550000000000,          !- Vertex 2 Z-coordinate {m}
    -24.800000000000,        !- Vertex 3 X-coordinate {m}
    -0.600000000000,         !- Vertex 3 Y-coordinate {m}
    8.550000000000,          !- Vertex 3 Z-coordinate {m}
    -24.800000000000,        !- Vertex 4 X-coordinate {m}
    -6.500000000000,         !- Vertex 4 Y-coordinate {m}
    8.550000000000;          !- Vertex 4 Z-coordinate {m}

BuildingSurface:Detailed,
    652B90,                  !- Name
    Wall,                    !- Surface Type
    Exterior Wall North,     !- Construction Name
    CIRCUL02_P3,             !- Zone Name
    Outdoors,                !- Outside Boundary Condition
    ,                        !- Outside Boundary Condition Object
    SunExposed,              !- Sun Exposure
    WindExposed,             !- Wind Exposure
    ,                        !- View Factor to Ground
    4,                       !- Number of Vertices
    -24.800000000000,        !- Vertex 1 X-coordinate {m}
    -6.500000000000,         !- Vertex 1 Y-coordinate {m}
    8.550000000000,          !- Vertex 1 Z-coordinate {m}
    -24.800000000000,        !- Vertex 2 X-coordinate {m}
    -6.500000000000,         !- Vertex 2 Y-coordinate {m}
    5.700000000000,          !- Vertex 2 Z-coordinate {m}
    -22.600000000000,        !- Vertex 3 X-coordinate {m}
    -6.500000000000,         !- Vertex 3 Y-coordinate {m}
    5.700000000000,          !- Vertex 3 Z-coordinate {m}
    -22.600000000000,        !- Vertex 4 X-coordinate {m}
    -6.500000000000,         !- Vertex 4 Y-coordinate {m}
    8.550000000000;          !- Vertex 4 Z-coordinate {m}

BuildingSurface:Detailed,
    4462C5,                  !- Name
    Wall,                    !- Surface Type
    Interior Wall,           !- Construction Name
    CIRCUL02_P3,             !- Zone Name
    Surface,                 !- Outside Boundary Condition
    FEAB03,                  !- Outside Boundary Condition Object
    NoSun,                   !- Sun Exposure
    NoWind,                  !- Wind Exposure
    ,                        !- View Factor to Ground
    4,                       !- Number of Vertices
    -24.800000000000,        !- Vertex 1 X-coordinate {m}
    -0.600000000000,         !- Vertex 1 Y-coordinate {m}
    8.550000000000,          !- Vertex 1 Z-coordinate {m}
    -24.800000000000,        !- Vertex 2 X-coordinate {m}
    -0.600000000000,         !- Vertex 2 Y-coordinate {m}
    5.700000000000,          !- Vertex 2 Z-coordinate {m}
    -24.800000000000,        !- Vertex 3 X-coordinate {m}
    -6.500000000000,         !- Vertex 3 Y-coordinate {m}
    5.700000000000,          !- Vertex 3 Z-coordinate {m}
    -24.800000000000,        !- Vertex 4 X-coordinate {m}
    -6.500000000000,         !- Vertex 4 Y-coordinate {m}
    8.550000000000;          !- Vertex 4 Z-coordinate {m}

BuildingSurface:Detailed,
    1DCE8F,                  !- Name
    Wall,                    !- Surface Type
    Exterior Wall South,     !- Construction Name
    CIRCUL02_P3,             !- Zone Name
    Outdoors,                !- Outside Boundary Condition
    ,                        !- Outside Boundary Condition Object
    SunExposed,              !- Sun Exposure
    WindExposed,             !- Wind Exposure
    ,                        !- View Factor to Ground
    4,                       !- Number of Vertices
    -22.600000000000,        !- Vertex 1 X-coordinate {m}
    -0.600000000000,         !- Vertex 1 Y-coordinate {m}
    8.550000000000,          !- Vertex 1 Z-coordinate {m}
    -22.600000000000,        !- Vertex 2 X-coordinate {m}
    -0.600000000000,         !- Vertex 2 Y-coordinate {m}
    5.700000000000,          !- Vertex 2 Z-coordinate {m}
    -24.800000000000,        !- Vertex 3 X-coordinate {m}
    -0.600000000000,         !- Vertex 3 Y-coordinate {m}
    5.700000000000,          !- Vertex 3 Z-coordinate {m}
    -24.800000000000,        !- Vertex 4 X-coordinate {m}
    -0.600000000000,         !- Vertex 4 Y-coordinate {m}
    8.550000000000;          !- Vertex 4 Z-coordinate {m}

BuildingSurface:Detailed,
    98A2CB,                  !- Name
    Wall,                    !- Surface Type
    Interior Wall,           !- Construction Name
    CIRCUL02_P3,             !- Zone Name
    Surface,                 !- Outside Boundary Condition
    509AF8,                  !- Outside Boundary Condition Object
    NoSun,                   !- Sun Exposure
    NoWind,                  !- Wind Exposure
    ,                        !- View Factor to Ground
    4,                       !- Number of Vertices
    -22.600000000000,        !- Vertex 1 X-coordinate {m}
    -6.500000000000,         !- Vertex 1 Y-coordinate {m}
    8.550000000000,          !- Vertex 1 Z-coordinate {m}
    -22.600000000000,        !- Vertex 2 X-coordinate {m}
    -6.500000000000,         !- Vertex 2 Y-coordinate {m}
    5.700000000000,          !- Vertex 2 Z-coordinate {m}
    -22.600000000000,        !- Vertex 3 X-coordinate {m}
    -0.600000000000,         !- Vertex 3 Y-coordinate {m}
    5.700000000000,          !- Vertex 3 Z-coordinate {m}
    -22.600000000000,        !- Vertex 4 X-coordinate {m}
    -0.600000000000,         !- Vertex 4 Y-coordinate {m}
    8.550000000000;          !- Vertex 4 Z-coordinate {m}

BuildingSurface:Detailed,
    FE9C73,                  !- Name
    Floor,                   !- Surface Type
    Interior Floor,          !- Construction Name
    APTO01_P3,               !- Zone Name
    Surface,                 !- Outside Boundary Condition
    F1DA59,                  !- Outside Boundary Condition Object
    NoSun,                   !- Sun Exposure
    NoWind,                  !- Wind Exposure
    ,                        !- View Factor to Ground
    4,                       !- Number of Vertices
    -6.800000000000,         !- Vertex 1 X-coordinate {m}
    -6.500000000000,         !- Vertex 1 Y-coordinate {m}
    5.700000000000,          !- Vertex 1 Z-coordinate {m}
    -6.800000000000,         !- Vertex 2 X-coordinate {m}
    0.000000000000,          !- Vertex 2 Y-coordinate {m}
    5.700000000000,          !- Vertex 2 Z-coordinate {m}
    0.000000000000,          !- Vertex 3 X-coordinate {m}
    0.000000000000,          !- Vertex 3 Y-coordinate {m}
    5.700000000000,          !- Vertex 3 Z-coordinate {m}
    0.000000000000,          !- Vertex 4 X-coordinate {m}
    -6.500000000000,         !- Vertex 4 Y-coordinate {m}
    5.700000000000;          !- Vertex 4 Z-coordinate {m}

BuildingSurface:Detailed,
    450B3C,                  !- Name
    Ceiling,                 !- Surface Type
    Interior Ceiling,        !- Construction Name
    APTO01_P3,               !- Zone Name
    Surface,                 !- Outside Boundary Condition
    7B6543,                  !- Outside Boundary Condition Object
    NoSun,                   !- Sun Exposure
    NoWind,                  !- Wind Exposure
    ,                        !- View Factor to Ground
    4,                       !- Number of Vertices
    0.000000000000,          !- Vertex 1 X-coordinate {m}
    -6.500000000000,         !- Vertex 1 Y-coordinate {m}
    8.550000000000,          !- Vertex 1 Z-coordinate {m}
    0.000000000000,          !- Vertex 2 X-coordinate {m}
    0.000000000000,          !- Vertex 2 Y-coordinate {m}
    8.550000000000,          !- Vertex 2 Z-coordinate {m}
    -6.800000000000,         !- Vertex 3 X-coordinate {m}
    0.000000000000,          !- Vertex 3 Y-coordinate {m}
    8.550000000000,          !- Vertex 3 Z-coordinate {m}
    -6.800000000000,         !- Vertex 4 X-coordinate {m}
    -6.500000000000,         !- Vertex 4 Y-coordinate {m}
    8.550000000000;          !- Vertex 4 Z-coordinate {m}

BuildingSurface:Detailed,
    A0A751,                  !- Name
    Wall,                    !- Surface Type
    Exterior Wall South,     !- Construction Name
    APTO01_P3,               !- Zone Name
    Outdoors,                !- Outside Boundary Condition
    ,                        !- Outside Boundary Condition Object
    SunExposed,              !- Sun Exposure
    WindExposed,             !- Wind Exposure
    ,                        !- View Factor to Ground
    4,                       !- Number of Vertices
    0.000000000000,          !- Vertex 1 X-coordinate {m}
    0.000000000000,          !- Vertex 1 Y-coordinate {m}
    8.550000000000,          !- Vertex 1 Z-coordinate {m}
    0.000000000000,          !- Vertex 2 X-coordinate {m}
    0.000000000000,          !- Vertex 2 Y-coordinate {m}
    5.700000000000,          !- Vertex 2 Z-coordinate {m}
    -6.800000000000,         !- Vertex 3 X-coordinate {m}
    0.000000000000,          !- Vertex 3 Y-coordinate {m}
    5.700000000000,          !- Vertex 3 Z-coordinate {m}
    -6.800000000000,         !- Vertex 4 X-coordinate {m}
    0.000000000000,          !- Vertex 4 Y-coordinate {m}
    8.550000000000;          !- Vertex 4 Z-coordinate {m}

BuildingSurface:Detailed,
    57DCFF,                  !- Name
    Wall,                    !- Surface Type
    Exterior Wall West,      !- Construction Name
    APTO01_P3,               !- Zone Name
    Outdoors,                !- Outside Boundary Condition
    ,                        !- Outside Boundary Condition Object
    SunExposed,              !- Sun Exposure
    WindExposed,             !- Wind Exposure
    ,                        !- View Factor to Ground
    4,                       !- Number of Vertices
    0.000000000000,          !- Vertex 1 X-coordinate {m}
    -6.500000000000,         !- Vertex 1 Y-coordinate {m}
    8.550000000000,          !- Vertex 1 Z-coordinate {m}
    0.000000000000,          !- Vertex 2 X-coordinate {m}
    -6.500000000000,         !- Vertex 2 Y-coordinate {m}
    5.700000000000,          !- Vertex 2 Z-coordinate {m}
    0.000000000000,          !- Vertex 3 X-coordinate {m}
    0.000000000000,          !- Vertex 3 Y-coordinate {m}
    5.700000000000,          !- Vertex 3 Z-coordinate {m}
    0.000000000000,          !- Vertex 4 X-coordinate {m}
    0.000000000000,          !- Vertex 4 Y-coordinate {m}
    8.550000000000;          !- Vertex 4 Z-coordinate {m}

BuildingSurface:Detailed,
    78104E,                  !- Name
    Wall,                    !- Surface Type
    Exterior Wall North,     !- Construction Name
    APTO01_P3,               !- Zone Name
    Outdoors,                !- Outside Boundary Condition
    ,                        !- Outside Boundary Condition Object
    SunExposed,              !- Sun Exposure
    WindExposed,             !- Wind Exposure
    ,                        !- View Factor to Ground
    4,                       !- Number of Vertices
    -6.800000000000,         !- Vertex 1 X-coordinate {m}
    -6.500000000000,         !- Vertex 1 Y-coordinate {m}
    8.550000000000,          !- Vertex 1 Z-coordinate {m}
    -6.800000000000,         !- Vertex 2 X-coordinate {m}
    -6.500000000000,         !- Vertex 2 Y-coordinate {m}
    5.700000000000,          !- Vertex 2 Z-coordinate {m}
    0.000000000000,          !- Vertex 3 X-coordinate {m}
    -6.500000000000,         !- Vertex 3 Y-coordinate {m}
    5.700000000000,          !- Vertex 3 Z-coordinate {m}
    0.000000000000,          !- Vertex 4 X-coordinate {m}
    -6.500000000000,         !- Vertex 4 Y-coordinate {m}
    8.550000000000;          !- Vertex 4 Z-coordinate {m}

BuildingSurface:Detailed,
    EFC823,                  !- Name
    Wall,                    !- Surface Type
    Exterior Wall East,      !- Construction Name
    APTO01_P3,               !- Zone Name
    Outdoors,                !- Outside Boundary Condition
    ,                        !- Outside Boundary Condition Object
    SunExposed,              !- Sun Exposure
    WindExposed,             !- Wind Exposure
    ,                        !- View Factor to Ground
    4,                       !- Number of Vertices
    -6.800000000000,         !- Vertex 1 X-coordinate {m}
    0.000000000000,          !- Vertex 1 Y-coordinate {m}
    8.550000000000,          !- Vertex 1 Z-coordinate {m}
    -6.800000000000,         !- Vertex 2 X-coordinate {m}
    0.000000000000,          !- Vertex 2 Y-coordinate {m}
    5.700000000000,          !- Vertex 2 Z-coordinate {m}
    -6.800000000000,         !- Vertex 3 X-coordinate {m}
    -0.600000000000,         !- Vertex 3 Y-coordinate {m}
    5.700000000000,          !- Vertex 3 Z-coordinate {m}
    -6.800000000000,         !- Vertex 4 X-coordinate {m}
    -0.600000000000,         !- Vertex 4 Y-coordinate {m}
    8.550000000000;          !- Vertex 4 Z-coordinate {m}

BuildingSurface:Detailed,
    391DC7,                  !- Name
    Floor,                   !- Surface Type
    Interior Floor,          !- Construction Name
    APTO02_P3,               !- Zone Name
    Surface,                 !- Outside Boundary Condition
    5CA5EE,                  !- Outside Boundary Condition Object
    NoSun,                   !- Sun Exposure
    NoWind,                  !- Wind Exposure
    ,                        !- View Factor to Ground
    4,                       !- Number of Vertices
    -15.800000000000,        !- Vertex 1 X-coordinate {m}
    -6.500000000000,         !- Vertex 1 Y-coordinate {m}
    5.700000000000,          !- Vertex 1 Z-coordinate {m}
    -15.800000000000,        !- Vertex 2 X-coordinate {m}
    0.000000000000,          !- Vertex 2 Y-coordinate {m}
    5.700000000000,          !- Vertex 2 Z-coordinate {m}
    -9.000000000000,         !- Vertex 3 X-coordinate {m}
    0.000000000000,          !- Vertex 3 Y-coordinate {m}
    5.700000000000,          !- Vertex 3 Z-coordinate {m}
    -9.000000000000,         !- Vertex 4 X-coordinate {m}
    -6.500000000000,         !- Vertex 4 Y-coordinate {m}
    5.700000000000;          !- Vertex 4 Z-coordinate {m}

BuildingSurface:Detailed,
    AF6042,                  !- Name
    Ceiling,                 !- Surface Type
    Interior Ceiling,        !- Construction Name
    APTO02_P3,               !- Zone Name
    Surface,                 !- Outside Boundary Condition
    5296D0,                  !- Outside Boundary Condition Object
    NoSun,                   !- Sun Exposure
    NoWind,                  !- Wind Exposure
    ,                        !- View Factor to Ground
    4,                       !- Number of Vertices
    -9.000000000000,         !- Vertex 1 X-coordinate {m}
    -6.500000000000,         !- Vertex 1 Y-coordinate {m}
    8.550000000000,          !- Vertex 1 Z-coordinate {m}
    -9.000000000000,         !- Vertex 2 X-coordinate {m}
    0.000000000000,          !- Vertex 2 Y-coordinate {m}
    8.550000000000,          !- Vertex 2 Z-coordinate {m}
    -15.800000000000,        !- Vertex 3 X-coordinate {m}
    0.000000000000,          !- Vertex 3 Y-coordinate {m}
    8.550000000000,          !- Vertex 3 Z-coordinate {m}
    -15.800000000000,        !- Vertex 4 X-coordinate {m}
    -6.500000000000,         !- Vertex 4 Y-coordinate {m}
    8.550000000000;          !- Vertex 4 Z-coordinate {m}

BuildingSurface:Detailed,
    E4DAA6,                  !- Name
    Wall,                    !- Surface Type
    Exterior Wall North,     !- Construction Name
    APTO02_P3,               !- Zone Name
    Outdoors,                !- Outside Boundary Condition
    ,                        !- Outside Boundary Condition Object
    SunExposed,              !- Sun Exposure
    WindExposed,             !- Wind Exposure
    ,                        !- View Factor to Ground
    4,                       !- Number of Vertices
    -15.800000000000,        !- Vertex 1 X-coordinate {m}
    -6.500000000000,         !- Vertex 1 Y-coordinate {m}
    8.550000000000,          !- Vertex 1 Z-coordinate {m}
    -15.800000000000,        !- Vertex 2 X-coordinate {m}
    -6.500000000000,         !- Vertex 2 Y-coordinate {m}
    5.700000000000,          !- Vertex 2 Z-coordinate {m}
    -9.000000000000,         !- Vertex 3 X-coordinate {m}
    -6.500000000000,         !- Vertex 3 Y-coordinate {m}
    5.700000000000,          !- Vertex 3 Z-coordinate {m}
    -9.000000000000,         !- Vertex 4 X-coordinate {m}
    -6.500000000000,         !- Vertex 4 Y-coordinate {m}
    8.550000000000;          !- Vertex 4 Z-coordinate {m}

BuildingSurface:Detailed,
    58B6E7,                  !- Name
    Wall,                    !- Surface Type
    Interior Wall,           !- Construction Name
    APTO02_P3,               !- Zone Name
    Surface,                 !- Outside Boundary Condition
    BAEDBE,                  !- Outside Boundary Condition Object
    NoSun,                   !- Sun Exposure
    NoWind,                  !- Wind Exposure
    ,                        !- View Factor to Ground
    4,                       !- Number of Vertices
    -9.000000000000,         !- Vertex 1 X-coordinate {m}
    -6.500000000000,         !- Vertex 1 Y-coordinate {m}
    8.550000000000,          !- Vertex 1 Z-coordinate {m}
    -9.000000000000,         !- Vertex 2 X-coordinate {m}
    -6.500000000000,         !- Vertex 2 Y-coordinate {m}
    5.700000000000,          !- Vertex 2 Z-coordinate {m}
    -9.000000000000,         !- Vertex 3 X-coordinate {m}
    -0.600000000000,         !- Vertex 3 Y-coordinate {m}
    5.700000000000,          !- Vertex 3 Z-coordinate {m}
    -9.000000000000,         !- Vertex 4 X-coordinate {m}
    -0.600000000000,         !- Vertex 4 Y-coordinate {m}
    8.550000000000;          !- Vertex 4 Z-coordinate {m}

BuildingSurface:Detailed,
    2A736B,                  !- Name
    Wall,                    !- Surface Type
    Exterior Wall South,     !- Construction Name
    APTO02_P3,               !- Zone Name
    Outdoors,                !- Outside Boundary Condition
    ,                        !- Outside Boundary Condition Object
    SunExposed,              !- Sun Exposure
    WindExposed,             !- Wind Exposure
    ,                        !- View Factor to Ground
    4,                       !- Number of Vertices
    -9.000000000000,         !- Vertex 1 X-coordinate {m}
    0.000000000000,          !- Vertex 1 Y-coordinate {m}
    8.550000000000,          !- Vertex 1 Z-coordinate {m}
    -9.000000000000,         !- Vertex 2 X-coordinate {m}
    0.000000000000,          !- Vertex 2 Y-coordinate {m}
    5.700000000000,          !- Vertex 2 Z-coordinate {m}
    -15.800000000000,        !- Vertex 3 X-coordinate {m}
    0.000000000000,          !- Vertex 3 Y-coordinate {m}
    5.700000000000,          !- Vertex 3 Z-coordinate {m}
    -15.800000000000,        !- Vertex 4 X-coordinate {m}
    0.000000000000,          !- Vertex 4 Y-coordinate {m}
    8.550000000000;          !- Vertex 4 Z-coordinate {m}

BuildingSurface:Detailed,
    E8D061,                  !- Name
    Wall,                    !- Surface Type
    Interior Wall,           !- Construction Name
    APTO02_P3,               !- Zone Name
    Surface,                 !- Outside Boundary Condition
    7E2C27,                  !- Outside Boundary Condition Object
    NoSun,                   !- Sun Exposure
    NoWind,                  !- Wind Exposure
    ,                        !- View Factor to Ground
    4,                       !- Number of Vertices
    -15.800000000000,        !- Vertex 1 X-coordinate {m}
    0.000000000000,          !- Vertex 1 Y-coordinate {m}
    8.550000000000,          !- Vertex 1 Z-coordinate {m}
    -15.800000000000,        !- Vertex 2 X-coordinate {m}
    0.000000000000,          !- Vertex 2 Y-coordinate {m}
    5.700000000000,          !- Vertex 2 Z-coordinate {m}
    -15.800000000000,        !- Vertex 3 X-coordinate {m}
    -6.500000000000,         !- Vertex 3 Y-coordinate {m}
    5.700000000000,          !- Vertex 3 Z-coordinate {m}
    -15.800000000000,        !- Vertex 4 X-coordinate {m}
    -6.500000000000,         !- Vertex 4 Y-coordinate {m}
    8.550000000000;          !- Vertex 4 Z-coordinate {m}

BuildingSurface:Detailed,
    24A443,                  !- Name
    Floor,                   !- Surface Type
    Interior Floor,          !- Construction Name
    APTO03_P3,               !- Zone Name
    Surface,                 !- Outside Boundary Condition
    19217A,                  !- Outside Boundary Condition Object
    NoSun,                   !- Sun Exposure
    NoWind,                  !- Wind Exposure
    ,                        !- View Factor to Ground
    4,                       !- Number of Vertices
    -22.600000000000,        !- Vertex 1 X-coordinate {m}
    -6.500000000000,         !- Vertex 1 Y-coordinate {m}
    5.700000000000,          !- Vertex 1 Z-coordinate {m}
    -22.600000000000,        !- Vertex 2 X-coordinate {m}
    0.000000000000,          !- Vertex 2 Y-coordinate {m}
    5.700000000000,          !- Vertex 2 Z-coordinate {m}
    -15.800000000000,        !- Vertex 3 X-coordinate {m}
    0.000000000000,          !- Vertex 3 Y-coordinate {m}
    5.700000000000,          !- Vertex 3 Z-coordinate {m}
    -15.800000000000,        !- Vertex 4 X-coordinate {m}
    -6.500000000000,         !- Vertex 4 Y-coordinate {m}
    5.700000000000;          !- Vertex 4 Z-coordinate {m}

BuildingSurface:Detailed,
    759575,                  !- Name
    Ceiling,                 !- Surface Type
    Interior Ceiling,        !- Construction Name
    APTO03_P3,               !- Zone Name
    Surface,                 !- Outside Boundary Condition
    9B22F8,                  !- Outside Boundary Condition Object
    NoSun,                   !- Sun Exposure
    NoWind,                  !- Wind Exposure
    ,                        !- View Factor to Ground
    4,                       !- Number of Vertices
    -15.800000000000,        !- Vertex 1 X-coordinate {m}
    -6.500000000000,         !- Vertex 1 Y-coordinate {m}
    8.550000000000,          !- Vertex 1 Z-coordinate {m}
    -15.800000000000,        !- Vertex 2 X-coordinate {m}
    0.000000000000,          !- Vertex 2 Y-coordinate {m}
    8.550000000000,          !- Vertex 2 Z-coordinate {m}
    -22.600000000000,        !- Vertex 3 X-coordinate {m}
    0.000000000000,          !- Vertex 3 Y-coordinate {m}
    8.550000000000,          !- Vertex 3 Z-coordinate {m}
    -22.600000000000,        !- Vertex 4 X-coordinate {m}
    -6.500000000000,         !- Vertex 4 Y-coordinate {m}
    8.550000000000;          !- Vertex 4 Z-coordinate {m}

BuildingSurface:Detailed,
    E40F11,                  !- Name
    Wall,                    !- Surface Type
    Exterior Wall South,     !- Construction Name
    APTO03_P3,               !- Zone Name
    Outdoors,                !- Outside Boundary Condition
    ,                        !- Outside Boundary Condition Object
    SunExposed,              !- Sun Exposure
    WindExposed,             !- Wind Exposure
    ,                        !- View Factor to Ground
    4,                       !- Number of Vertices
    -15.800000000000,        !- Vertex 1 X-coordinate {m}
    0.000000000000,          !- Vertex 1 Y-coordinate {m}
    8.550000000000,          !- Vertex 1 Z-coordinate {m}
    -15.800000000000,        !- Vertex 2 X-coordinate {m}
    0.000000000000,          !- Vertex 2 Y-coordinate {m}
    5.700000000000,          !- Vertex 2 Z-coordinate {m}
    -22.600000000000,        !- Vertex 3 X-coordinate {m}
    0.000000000000,          !- Vertex 3 Y-coordinate {m}
    5.700000000000,          !- Vertex 3 Z-coordinate {m}
    -22.600000000000,        !- Vertex 4 X-coordinate {m}
    0.000000000000,          !- Vertex 4 Y-coordinate {m}
    8.550000000000;          !- Vertex 4 Z-coordinate {m}

BuildingSurface:Detailed,
    7E2C27,                  !- Name
    Wall,                    !- Surface Type
    Interior Wall,           !- Construction Name
    APTO03_P3,               !- Zone Name
    Surface,                 !- Outside Boundary Condition
    E8D061,                  !- Outside Boundary Condition Object
    NoSun,                   !- Sun Exposure
    NoWind,                  !- Wind Exposure
    ,                        !- View Factor to Ground
    4,                       !- Number of Vertices
    -15.800000000000,        !- Vertex 1 X-coordinate {m}
    -6.500000000000,         !- Vertex 1 Y-coordinate {m}
    8.550000000000,          !- Vertex 1 Z-coordinate {m}
    -15.800000000000,        !- Vertex 2 X-coordinate {m}
    -6.500000000000,         !- Vertex 2 Y-coordinate {m}
    5.700000000000,          !- Vertex 2 Z-coordinate {m}
    -15.800000000000,        !- Vertex 3 X-coordinate {m}
    0.000000000000,          !- Vertex 3 Y-coordinate {m}
    5.700000000000,          !- Vertex 3 Z-coordinate {m}
    -15.800000000000,        !- Vertex 4 X-coordinate {m}
    0.000000000000,          !- Vertex 4 Y-coordinate {m}
    8.550000000000;          !- Vertex 4 Z-coordinate {m}

BuildingSurface:Detailed,
    752E83,                  !- Name
    Wall,                    !- Surface Type
    Exterior Wall North,     !- Construction Name
    APTO03_P3,               !- Zone Name
    Outdoors,                !- Outside Boundary Condition
    ,                        !- Outside Boundary Condition Object
    SunExposed,              !- Sun Exposure
    WindExposed,             !- Wind Exposure
    ,                        !- View Factor to Ground
    4,                       !- Number of Vertices
    -22.600000000000,        !- Vertex 1 X-coordinate {m}
    -6.500000000000,         !- Vertex 1 Y-coordinate {m}
    8.550000000000,          !- Vertex 1 Z-coordinate {m}
    -22.600000000000,        !- Vertex 2 X-coordinate {m}
    -6.500000000000,         !- Vertex 2 Y-coordinate {m}
    5.700000000000,          !- Vertex 2 Z-coordinate {m}
    -15.800000000000,        !- Vertex 3 X-coordinate {m}
    -6.500000000000,         !- Vertex 3 Y-coordinate {m}
    5.700000000000,          !- Vertex 3 Z-coordinate {m}
    -15.800000000000,        !- Vertex 4 X-coordinate {m}
    -6.500000000000,         !- Vertex 4 Y-coordinate {m}
    8.550000000000;          !- Vertex 4 Z-coordinate {m}

BuildingSurface:Detailed,
    9847C6,                  !- Name
    Wall,                    !- Surface Type
    Exterior Wall East,      !- Construction Name
    APTO03_P3,               !- Zone Name
    Outdoors,                !- Outside Boundary Condition
    ,                        !- Outside Boundary Condition Object
    SunExposed,              !- Sun Exposure
    WindExposed,             !- Wind Exposure
    ,                        !- View Factor to Ground
    4,                       !- Number of Vertices
    -22.600000000000,        !- Vertex 1 X-coordinate {m}
    0.000000000000,          !- Vertex 1 Y-coordinate {m}
    8.550000000000,          !- Vertex 1 Z-coordinate {m}
    -22.600000000000,        !- Vertex 2 X-coordinate {m}
    0.000000000000,          !- Vertex 2 Y-coordinate {m}
    5.700000000000,          !- Vertex 2 Z-coordinate {m}
    -22.600000000000,        !- Vertex 3 X-coordinate {m}
    -0.600000000000,         !- Vertex 3 Y-coordinate {m}
    5.700000000000,          !- Vertex 3 Z-coordinate {m}
    -22.600000000000,        !- Vertex 4 X-coordinate {m}
    -0.600000000000,         !- Vertex 4 Y-coordinate {m}
    8.550000000000;          !- Vertex 4 Z-coordinate {m}

BuildingSurface:Detailed,
    D429D1,                  !- Name
    Floor,                   !- Surface Type
    Interior Floor,          !- Construction Name
    CIRCUL02_P4,             !- Zone Name
    Surface,                 !- Outside Boundary Condition
    569278,                  !- Outside Boundary Condition Object
    NoSun,                   !- Sun Exposure
    NoWind,                  !- Wind Exposure
    ,                        !- View Factor to Ground
    4,                       !- Number of Vertices
    -24.800000000000,        !- Vertex 1 X-coordinate {m}
    -6.500000000000,         !- Vertex 1 Y-coordinate {m}
    8.550000000000,          !- Vertex 1 Z-coordinate {m}
    -24.800000000000,        !- Vertex 2 X-coordinate {m}
    -0.600000000000,         !- Vertex 2 Y-coordinate {m}
    8.550000000000,          !- Vertex 2 Z-coordinate {m}
    -22.600000000000,        !- Vertex 3 X-coordinate {m}
    -0.600000000000,         !- Vertex 3 Y-coordinate {m}
    8.550000000000,          !- Vertex 3 Z-coordinate {m}
    -22.600000000000,        !- Vertex 4 X-coordinate {m}
    -6.500000000000,         !- Vertex 4 Y-coordinate {m}
    8.550000000000;          !- Vertex 4 Z-coordinate {m}

BuildingSurface:Detailed,
    11BC62,                  !- Name
    Ceiling,                 !- Surface Type
    Interior Ceiling,        !- Construction Name
    CIRCUL02_P4,             !- Zone Name
    Surface,                 !- Outside Boundary Condition
    4C2265,                  !- Outside Boundary Condition Object
    NoSun,                   !- Sun Exposure
    NoWind,                  !- Wind Exposure
    ,                        !- View Factor to Ground
    4,                       !- Number of Vertices
    -22.600000000000,        !- Vertex 1 X-coordinate {m}
    -6.500000000000,         !- Vertex 1 Y-coordinate {m}
    11.400000000000,         !- Vertex 1 Z-coordinate {m}
    -22.600000000000,        !- Vertex 2 X-coordinate {m}
    -0.600000000000,         !- Vertex 2 Y-coordinate {m}
    11.400000000000,         !- Vertex 2 Z-coordinate {m}
    -24.800000000000,        !- Vertex 3 X-coordinate {m}
    -0.600000000000,         !- Vertex 3 Y-coordinate {m}
    11.400000000000,         !- Vertex 3 Z-coordinate {m}
    -24.800000000000,        !- Vertex 4 X-coordinate {m}
    -6.500000000000,         !- Vertex 4 Y-coordinate {m}
    11.400000000000;         !- Vertex 4 Z-coordinate {m}

BuildingSurface:Detailed,
    DB65E0,                  !- Name
    Wall,                    !- Surface Type
    Exterior Wall North,     !- Construction Name
    CIRCUL02_P4,             !- Zone Name
    Outdoors,                !- Outside Boundary Condition
    ,                        !- Outside Boundary Condition Object
    SunExposed,              !- Sun Exposure
    WindExposed,             !- Wind Exposure
    ,                        !- View Factor to Ground
    4,                       !- Number of Vertices
    -24.800000000000,        !- Vertex 1 X-coordinate {m}
    -6.500000000000,         !- Vertex 1 Y-coordinate {m}
    11.400000000000,         !- Vertex 1 Z-coordinate {m}
    -24.800000000000,        !- Vertex 2 X-coordinate {m}
    -6.500000000000,         !- Vertex 2 Y-coordinate {m}
    8.550000000000,          !- Vertex 2 Z-coordinate {m}
    -22.600000000000,        !- Vertex 3 X-coordinate {m}
    -6.500000000000,         !- Vertex 3 Y-coordinate {m}
    8.550000000000,          !- Vertex 3 Z-coordinate {m}
    -22.600000000000,        !- Vertex 4 X-coordinate {m}
    -6.500000000000,         !- Vertex 4 Y-coordinate {m}
    11.400000000000;         !- Vertex 4 Z-coordinate {m}

BuildingSurface:Detailed,
    D1FF39,                  !- Name
    Wall,                    !- Surface Type
    Interior Wall,           !- Construction Name
    CIRCUL02_P4,             !- Zone Name
    Surface,                 !- Outside Boundary Condition
    2D981A,                  !- Outside Boundary Condition Object
    NoSun,                   !- Sun Exposure
    NoWind,                  !- Wind Exposure
    ,                        !- View Factor to Ground
    4,                       !- Number of Vertices
    -24.800000000000,        !- Vertex 1 X-coordinate {m}
    -0.600000000000,         !- Vertex 1 Y-coordinate {m}
    11.400000000000,         !- Vertex 1 Z-coordinate {m}
    -24.800000000000,        !- Vertex 2 X-coordinate {m}
    -0.600000000000,         !- Vertex 2 Y-coordinate {m}
    8.550000000000,          !- Vertex 2 Z-coordinate {m}
    -24.800000000000,        !- Vertex 3 X-coordinate {m}
    -6.500000000000,         !- Vertex 3 Y-coordinate {m}
    8.550000000000,          !- Vertex 3 Z-coordinate {m}
    -24.800000000000,        !- Vertex 4 X-coordinate {m}
    -6.500000000000,         !- Vertex 4 Y-coordinate {m}
    11.400000000000;         !- Vertex 4 Z-coordinate {m}

BuildingSurface:Detailed,
    EC8A4C,                  !- Name
    Wall,                    !- Surface Type
    Exterior Wall South,     !- Construction Name
    CIRCUL02_P4,             !- Zone Name
    Outdoors,                !- Outside Boundary Condition
    ,                        !- Outside Boundary Condition Object
    SunExposed,              !- Sun Exposure
    WindExposed,             !- Wind Exposure
    ,                        !- View Factor to Ground
    4,                       !- Number of Vertices
    -22.600000000000,        !- Vertex 1 X-coordinate {m}
    -0.600000000000,         !- Vertex 1 Y-coordinate {m}
    11.400000000000,         !- Vertex 1 Z-coordinate {m}
    -22.600000000000,        !- Vertex 2 X-coordinate {m}
    -0.600000000000,         !- Vertex 2 Y-coordinate {m}
    8.550000000000,          !- Vertex 2 Z-coordinate {m}
    -24.800000000000,        !- Vertex 3 X-coordinate {m}
    -0.600000000000,         !- Vertex 3 Y-coordinate {m}
    8.550000000000,          !- Vertex 3 Z-coordinate {m}
    -24.800000000000,        !- Vertex 4 X-coordinate {m}
    -0.600000000000,         !- Vertex 4 Y-coordinate {m}
    11.400000000000;         !- Vertex 4 Z-coordinate {m}

BuildingSurface:Detailed,
    F6C43B,                  !- Name
    Wall,                    !- Surface Type
    Interior Wall,           !- Construction Name
    CIRCUL02_P4,             !- Zone Name
    Surface,                 !- Outside Boundary Condition
    AE9DFE,                  !- Outside Boundary Condition Object
    NoSun,                   !- Sun Exposure
    NoWind,                  !- Wind Exposure
    0.0,                     !- View Factor to Ground
    4,                       !- Number of Vertices
    -22.600000000000,        !- Vertex 1 X-coordinate {m}
    -6.500000000000,         !- Vertex 1 Y-coordinate {m}
    11.400000000000,         !- Vertex 1 Z-coordinate {m}
    -22.600000000000,        !- Vertex 2 X-coordinate {m}
    -6.500000000000,         !- Vertex 2 Y-coordinate {m}
    8.550000000000,          !- Vertex 2 Z-coordinate {m}
    -22.600000000000,        !- Vertex 3 X-coordinate {m}
    -0.600000000000,         !- Vertex 3 Y-coordinate {m}
    8.550000000000,          !- Vertex 3 Z-coordinate {m}
    -22.600000000000,        !- Vertex 4 X-coordinate {m}
    -0.600000000000,         !- Vertex 4 Y-coordinate {m}
    11.400000000000;         !- Vertex 4 Z-coordinate {m}

BuildingSurface:Detailed,
    9B22F8,                  !- Name
    Floor,                   !- Surface Type
    Interior Floor,          !- Construction Name
    APTO03_P4,               !- Zone Name
    Surface,                 !- Outside Boundary Condition
    759575,                  !- Outside Boundary Condition Object
    NoSun,                   !- Sun Exposure
    NoWind,                  !- Wind Exposure
    ,                        !- View Factor to Ground
    4,                       !- Number of Vertices
    -22.600000000000,        !- Vertex 1 X-coordinate {m}
    -6.500000000000,         !- Vertex 1 Y-coordinate {m}
    8.550000000000,          !- Vertex 1 Z-coordinate {m}
    -22.600000000000,        !- Vertex 2 X-coordinate {m}
    0.000000000000,          !- Vertex 2 Y-coordinate {m}
    8.550000000000,          !- Vertex 2 Z-coordinate {m}
    -15.800000000000,        !- Vertex 3 X-coordinate {m}
    0.000000000000,          !- Vertex 3 Y-coordinate {m}
    8.550000000000,          !- Vertex 3 Z-coordinate {m}
    -15.800000000000,        !- Vertex 4 X-coordinate {m}
    -6.500000000000,         !- Vertex 4 Y-coordinate {m}
    8.550000000000;          !- Vertex 4 Z-coordinate {m}

BuildingSurface:Detailed,
    141918,                  !- Name
    Ceiling,                 !- Surface Type
    Interior Ceiling,        !- Construction Name
    APTO03_P4,               !- Zone Name
    Surface,                 !- Outside Boundary Condition
    229383,                  !- Outside Boundary Condition Object
    NoSun,                   !- Sun Exposure
    NoWind,                  !- Wind Exposure
    ,                        !- View Factor to Ground
    4,                       !- Number of Vertices
    -15.800000000000,        !- Vertex 1 X-coordinate {m}
    -6.500000000000,         !- Vertex 1 Y-coordinate {m}
    11.400000000000,         !- Vertex 1 Z-coordinate {m}
    -15.800000000000,        !- Vertex 2 X-coordinate {m}
    0.000000000000,          !- Vertex 2 Y-coordinate {m}
    11.400000000000,         !- Vertex 2 Z-coordinate {m}
    -22.600000000000,        !- Vertex 3 X-coordinate {m}
    0.000000000000,          !- Vertex 3 Y-coordinate {m}
    11.400000000000,         !- Vertex 3 Z-coordinate {m}
    -22.600000000000,        !- Vertex 4 X-coordinate {m}
    -6.500000000000,         !- Vertex 4 Y-coordinate {m}
    11.400000000000;         !- Vertex 4 Z-coordinate {m}

BuildingSurface:Detailed,
    4B5934,                  !- Name
    Wall,                    !- Surface Type
    Exterior Wall South,     !- Construction Name
    APTO03_P4,               !- Zone Name
    Outdoors,                !- Outside Boundary Condition
    ,                        !- Outside Boundary Condition Object
    SunExposed,              !- Sun Exposure
    WindExposed,             !- Wind Exposure
    ,                        !- View Factor to Ground
    4,                       !- Number of Vertices
    -15.800000000000,        !- Vertex 1 X-coordinate {m}
    0.000000000000,          !- Vertex 1 Y-coordinate {m}
    11.400000000000,         !- Vertex 1 Z-coordinate {m}
    -15.800000000000,        !- Vertex 2 X-coordinate {m}
    0.000000000000,          !- Vertex 2 Y-coordinate {m}
    8.550000000000,          !- Vertex 2 Z-coordinate {m}
    -22.600000000000,        !- Vertex 3 X-coordinate {m}
    0.000000000000,          !- Vertex 3 Y-coordinate {m}
    8.550000000000,          !- Vertex 3 Z-coordinate {m}
    -22.600000000000,        !- Vertex 4 X-coordinate {m}
    0.000000000000,          !- Vertex 4 Y-coordinate {m}
    11.400000000000;         !- Vertex 4 Z-coordinate {m}

BuildingSurface:Detailed,
    61863E,                  !- Name
    Wall,                    !- Surface Type
    Interior Wall,           !- Construction Name
    APTO03_P4,               !- Zone Name
    Surface,                 !- Outside Boundary Condition
    76EF80,                  !- Outside Boundary Condition Object
    NoSun,                   !- Sun Exposure
    NoWind,                  !- Wind Exposure
    ,                        !- View Factor to Ground
    4,                       !- Number of Vertices
    -15.800000000000,        !- Vertex 1 X-coordinate {m}
    -6.500000000000,         !- Vertex 1 Y-coordinate {m}
    11.400000000000,         !- Vertex 1 Z-coordinate {m}
    -15.800000000000,        !- Vertex 2 X-coordinate {m}
    -6.500000000000,         !- Vertex 2 Y-coordinate {m}
    8.550000000000,          !- Vertex 2 Z-coordinate {m}
    -15.800000000000,        !- Vertex 3 X-coordinate {m}
    0.000000000000,          !- Vertex 3 Y-coordinate {m}
    8.550000000000,          !- Vertex 3 Z-coordinate {m}
    -15.800000000000,        !- Vertex 4 X-coordinate {m}
    0.000000000000,          !- Vertex 4 Y-coordinate {m}
    11.400000000000;         !- Vertex 4 Z-coordinate {m}

BuildingSurface:Detailed,
    9FC06E,                  !- Name
    Wall,                    !- Surface Type
    Exterior Wall North,     !- Construction Name
    APTO03_P4,               !- Zone Name
    Outdoors,                !- Outside Boundary Condition
    ,                        !- Outside Boundary Condition Object
    SunExposed,              !- Sun Exposure
    WindExposed,             !- Wind Exposure
    ,                        !- View Factor to Ground
    4,                       !- Number of Vertices
    -22.600000000000,        !- Vertex 1 X-coordinate {m}
    -6.500000000000,         !- Vertex 1 Y-coordinate {m}
    11.400000000000,         !- Vertex 1 Z-coordinate {m}
    -22.600000000000,        !- Vertex 2 X-coordinate {m}
    -6.500000000000,         !- Vertex 2 Y-coordinate {m}
    8.550000000000,          !- Vertex 2 Z-coordinate {m}
    -15.800000000000,        !- Vertex 3 X-coordinate {m}
    -6.500000000000,         !- Vertex 3 Y-coordinate {m}
    8.550000000000,          !- Vertex 3 Z-coordinate {m}
    -15.800000000000,        !- Vertex 4 X-coordinate {m}
    -6.500000000000,         !- Vertex 4 Y-coordinate {m}
    11.400000000000;         !- Vertex 4 Z-coordinate {m}

BuildingSurface:Detailed,
    5FAC41,                  !- Name
    Wall,                    !- Surface Type
    Exterior Wall East,      !- Construction Name
    APTO03_P4,               !- Zone Name
    Outdoors,                !- Outside Boundary Condition
    ,                        !- Outside Boundary Condition Object
    SunExposed,              !- Sun Exposure
    WindExposed,             !- Wind Exposure
    ,                        !- View Factor to Ground
    4,                       !- Number of Vertices
    -22.600000000000,        !- Vertex 1 X-coordinate {m}
    0.000000000000,          !- Vertex 1 Y-coordinate {m}
    11.400000000000,         !- Vertex 1 Z-coordinate {m}
    -22.600000000000,        !- Vertex 2 X-coordinate {m}
    0.000000000000,          !- Vertex 2 Y-coordinate {m}
    8.550000000000,          !- Vertex 2 Z-coordinate {m}
    -22.600000000000,        !- Vertex 3 X-coordinate {m}
    -0.600000000000,         !- Vertex 3 Y-coordinate {m}
    8.550000000000,          !- Vertex 3 Z-coordinate {m}
    -22.600000000000,        !- Vertex 4 X-coordinate {m}
    -0.600000000000,         !- Vertex 4 Y-coordinate {m}
    11.400000000000;         !- Vertex 4 Z-coordinate {m}

BuildingSurface:Detailed,
    5296D0,                  !- Name
    Floor,                   !- Surface Type
    Interior Floor,          !- Construction Name
    APTO02_P4,               !- Zone Name
    Surface,                 !- Outside Boundary Condition
    AF6042,                  !- Outside Boundary Condition Object
    NoSun,                   !- Sun Exposure
    NoWind,                  !- Wind Exposure
    ,                        !- View Factor to Ground
    4,                       !- Number of Vertices
    -15.800000000000,        !- Vertex 1 X-coordinate {m}
    -6.500000000000,         !- Vertex 1 Y-coordinate {m}
    8.550000000000,          !- Vertex 1 Z-coordinate {m}
    -15.800000000000,        !- Vertex 2 X-coordinate {m}
    0.000000000000,          !- Vertex 2 Y-coordinate {m}
    8.550000000000,          !- Vertex 2 Z-coordinate {m}
    -9.000000000000,         !- Vertex 3 X-coordinate {m}
    0.000000000000,          !- Vertex 3 Y-coordinate {m}
    8.550000000000,          !- Vertex 3 Z-coordinate {m}
    -9.000000000000,         !- Vertex 4 X-coordinate {m}
    -6.500000000000,         !- Vertex 4 Y-coordinate {m}
    8.550000000000;          !- Vertex 4 Z-coordinate {m}

BuildingSurface:Detailed,
    D188EC,                  !- Name
    Ceiling,                 !- Surface Type
    Interior Ceiling,        !- Construction Name
    APTO02_P4,               !- Zone Name
    Surface,                 !- Outside Boundary Condition
    BA2640,                  !- Outside Boundary Condition Object
    NoSun,                   !- Sun Exposure
    NoWind,                  !- Wind Exposure
    ,                        !- View Factor to Ground
    4,                       !- Number of Vertices
    -9.000000000000,         !- Vertex 1 X-coordinate {m}
    -6.500000000000,         !- Vertex 1 Y-coordinate {m}
    11.400000000000,         !- Vertex 1 Z-coordinate {m}
    -9.000000000000,         !- Vertex 2 X-coordinate {m}
    0.000000000000,          !- Vertex 2 Y-coordinate {m}
    11.400000000000,         !- Vertex 2 Z-coordinate {m}
    -15.800000000000,        !- Vertex 3 X-coordinate {m}
    0.000000000000,          !- Vertex 3 Y-coordinate {m}
    11.400000000000,         !- Vertex 3 Z-coordinate {m}
    -15.800000000000,        !- Vertex 4 X-coordinate {m}
    -6.500000000000,         !- Vertex 4 Y-coordinate {m}
    11.400000000000;         !- Vertex 4 Z-coordinate {m}

BuildingSurface:Detailed,
    B5DE06,                  !- Name
    Wall,                    !- Surface Type
    Exterior Wall North,     !- Construction Name
    APTO02_P4,               !- Zone Name
    Outdoors,                !- Outside Boundary Condition
    ,                        !- Outside Boundary Condition Object
    SunExposed,              !- Sun Exposure
    WindExposed,             !- Wind Exposure
    ,                        !- View Factor to Ground
    4,                       !- Number of Vertices
    -15.800000000000,        !- Vertex 1 X-coordinate {m}
    -6.500000000000,         !- Vertex 1 Y-coordinate {m}
    11.400000000000,         !- Vertex 1 Z-coordinate {m}
    -15.800000000000,        !- Vertex 2 X-coordinate {m}
    -6.500000000000,         !- Vertex 2 Y-coordinate {m}
    8.550000000000,          !- Vertex 2 Z-coordinate {m}
    -9.000000000000,         !- Vertex 3 X-coordinate {m}
    -6.500000000000,         !- Vertex 3 Y-coordinate {m}
    8.550000000000,          !- Vertex 3 Z-coordinate {m}
    -9.000000000000,         !- Vertex 4 X-coordinate {m}
    -6.500000000000,         !- Vertex 4 Y-coordinate {m}
    11.400000000000;         !- Vertex 4 Z-coordinate {m}

BuildingSurface:Detailed,
    172F04,                  !- Name
    Wall,                    !- Surface Type
    Interior Wall,           !- Construction Name
    APTO02_P4,               !- Zone Name
    Surface,                 !- Outside Boundary Condition
    1993F1,                  !- Outside Boundary Condition Object
    NoSun,                   !- Sun Exposure
    NoWind,                  !- Wind Exposure
    ,                        !- View Factor to Ground
    4,                       !- Number of Vertices
    -9.000000000000,         !- Vertex 1 X-coordinate {m}
    -6.500000000000,         !- Vertex 1 Y-coordinate {m}
    11.400000000000,         !- Vertex 1 Z-coordinate {m}
    -9.000000000000,         !- Vertex 2 X-coordinate {m}
    -6.500000000000,         !- Vertex 2 Y-coordinate {m}
    8.550000000000,          !- Vertex 2 Z-coordinate {m}
    -9.000000000000,         !- Vertex 3 X-coordinate {m}
    -0.600000000000,         !- Vertex 3 Y-coordinate {m}
    8.550000000000,          !- Vertex 3 Z-coordinate {m}
    -9.000000000000,         !- Vertex 4 X-coordinate {m}
    -0.600000000000,         !- Vertex 4 Y-coordinate {m}
    11.400000000000;         !- Vertex 4 Z-coordinate {m}

BuildingSurface:Detailed,
    45C3E7,                  !- Name
    Wall,                    !- Surface Type
    Exterior Wall South,     !- Construction Name
    APTO02_P4,               !- Zone Name
    Outdoors,                !- Outside Boundary Condition
    ,                        !- Outside Boundary Condition Object
    SunExposed,              !- Sun Exposure
    WindExposed,             !- Wind Exposure
    ,                        !- View Factor to Ground
    4,                       !- Number of Vertices
    -9.000000000000,         !- Vertex 1 X-coordinate {m}
    0.000000000000,          !- Vertex 1 Y-coordinate {m}
    11.400000000000,         !- Vertex 1 Z-coordinate {m}
    -9.000000000000,         !- Vertex 2 X-coordinate {m}
    0.000000000000,          !- Vertex 2 Y-coordinate {m}
    8.550000000000,          !- Vertex 2 Z-coordinate {m}
    -15.800000000000,        !- Vertex 3 X-coordinate {m}
    0.000000000000,          !- Vertex 3 Y-coordinate {m}
    8.550000000000,          !- Vertex 3 Z-coordinate {m}
    -15.800000000000,        !- Vertex 4 X-coordinate {m}
    0.000000000000,          !- Vertex 4 Y-coordinate {m}
    11.400000000000;         !- Vertex 4 Z-coordinate {m}

BuildingSurface:Detailed,
    76EF80,                  !- Name
    Wall,                    !- Surface Type
    Interior Wall,           !- Construction Name
    APTO02_P4,               !- Zone Name
    Surface,                 !- Outside Boundary Condition
    61863E,                  !- Outside Boundary Condition Object
    NoSun,                   !- Sun Exposure
    NoWind,                  !- Wind Exposure
    ,                        !- View Factor to Ground
    4,                       !- Number of Vertices
    -15.800000000000,        !- Vertex 1 X-coordinate {m}
    0.000000000000,          !- Vertex 1 Y-coordinate {m}
    11.400000000000,         !- Vertex 1 Z-coordinate {m}
    -15.800000000000,        !- Vertex 2 X-coordinate {m}
    0.000000000000,          !- Vertex 2 Y-coordinate {m}
    8.550000000000,          !- Vertex 2 Z-coordinate {m}
    -15.800000000000,        !- Vertex 3 X-coordinate {m}
    -6.500000000000,         !- Vertex 3 Y-coordinate {m}
    8.550000000000,          !- Vertex 3 Z-coordinate {m}
    -15.800000000000,        !- Vertex 4 X-coordinate {m}
    -6.500000000000,         !- Vertex 4 Y-coordinate {m}
    11.400000000000;         !- Vertex 4 Z-coordinate {m}

BuildingSurface:Detailed,
    E23395,                  !- Name
    Floor,                   !- Surface Type
    Interior Floor,          !- Construction Name
    APTO04_P4,               !- Zone Name
    Surface,                 !- Outside Boundary Condition
    3CFC79,                  !- Outside Boundary Condition Object
    NoSun,                   !- Sun Exposure
    NoWind,                  !- Wind Exposure
    ,                        !- View Factor to Ground
    4,                       !- Number of Vertices
    -31.600000000000,        !- Vertex 1 X-coordinate {m}
    -6.500000000000,         !- Vertex 1 Y-coordinate {m}
    8.550000000000,          !- Vertex 1 Z-coordinate {m}
    -31.600000000000,        !- Vertex 2 X-coordinate {m}
    0.000000000000,          !- Vertex 2 Y-coordinate {m}
    8.550000000000,          !- Vertex 2 Z-coordinate {m}
    -24.800000000000,        !- Vertex 3 X-coordinate {m}
    0.000000000000,          !- Vertex 3 Y-coordinate {m}
    8.550000000000,          !- Vertex 3 Z-coordinate {m}
    -24.800000000000,        !- Vertex 4 X-coordinate {m}
    -6.500000000000,         !- Vertex 4 Y-coordinate {m}
    8.550000000000;          !- Vertex 4 Z-coordinate {m}

BuildingSurface:Detailed,
    291971,                  !- Name
    Ceiling,                 !- Surface Type
    Interior Ceiling,        !- Construction Name
    APTO04_P4,               !- Zone Name
    Surface,                 !- Outside Boundary Condition
    928BF1,                  !- Outside Boundary Condition Object
    NoSun,                   !- Sun Exposure
    NoWind,                  !- Wind Exposure
    ,                        !- View Factor to Ground
    4,                       !- Number of Vertices
    -24.800000000000,        !- Vertex 1 X-coordinate {m}
    -6.500000000000,         !- Vertex 1 Y-coordinate {m}
    11.400000000000,         !- Vertex 1 Z-coordinate {m}
    -24.800000000000,        !- Vertex 2 X-coordinate {m}
    0.000000000000,          !- Vertex 2 Y-coordinate {m}
    11.400000000000,         !- Vertex 2 Z-coordinate {m}
    -31.600000000000,        !- Vertex 3 X-coordinate {m}
    0.000000000000,          !- Vertex 3 Y-coordinate {m}
    11.400000000000,         !- Vertex 3 Z-coordinate {m}
    -31.600000000000,        !- Vertex 4 X-coordinate {m}
    -6.500000000000,         !- Vertex 4 Y-coordinate {m}
    11.400000000000;         !- Vertex 4 Z-coordinate {m}

BuildingSurface:Detailed,
    CC643C,                  !- Name
    Wall,                    !- Surface Type
    Exterior Wall North,     !- Construction Name
    APTO04_P4,               !- Zone Name
    Outdoors,                !- Outside Boundary Condition
    ,                        !- Outside Boundary Condition Object
    SunExposed,              !- Sun Exposure
    WindExposed,             !- Wind Exposure
    ,                        !- View Factor to Ground
    4,                       !- Number of Vertices
    -31.600000000000,        !- Vertex 1 X-coordinate {m}
    -6.500000000000,         !- Vertex 1 Y-coordinate {m}
    11.400000000000,         !- Vertex 1 Z-coordinate {m}
    -31.600000000000,        !- Vertex 2 X-coordinate {m}
    -6.500000000000,         !- Vertex 2 Y-coordinate {m}
    8.550000000000,          !- Vertex 2 Z-coordinate {m}
    -24.800000000000,        !- Vertex 3 X-coordinate {m}
    -6.500000000000,         !- Vertex 3 Y-coordinate {m}
    8.550000000000,          !- Vertex 3 Z-coordinate {m}
    -24.800000000000,        !- Vertex 4 X-coordinate {m}
    -6.500000000000,         !- Vertex 4 Y-coordinate {m}
    11.400000000000;         !- Vertex 4 Z-coordinate {m}

BuildingSurface:Detailed,
    2D981A,                  !- Name
    Wall,                    !- Surface Type
    Interior Wall,           !- Construction Name
    APTO04_P4,               !- Zone Name
    Surface,                 !- Outside Boundary Condition
    D1FF39,                  !- Outside Boundary Condition Object
    NoSun,                   !- Sun Exposure
    NoWind,                  !- Wind Exposure
    ,                        !- View Factor to Ground
    4,                       !- Number of Vertices
    -24.800000000000,        !- Vertex 1 X-coordinate {m}
    -6.500000000000,         !- Vertex 1 Y-coordinate {m}
    11.400000000000,         !- Vertex 1 Z-coordinate {m}
    -24.800000000000,        !- Vertex 2 X-coordinate {m}
    -6.500000000000,         !- Vertex 2 Y-coordinate {m}
    8.550000000000,          !- Vertex 2 Z-coordinate {m}
    -24.800000000000,        !- Vertex 3 X-coordinate {m}
    -0.600000000000,         !- Vertex 3 Y-coordinate {m}
    8.550000000000,          !- Vertex 3 Z-coordinate {m}
    -24.800000000000,        !- Vertex 4 X-coordinate {m}
    -0.600000000000,         !- Vertex 4 Y-coordinate {m}
    11.400000000000;         !- Vertex 4 Z-coordinate {m}

BuildingSurface:Detailed,
    194C57,                  !- Name
    Wall,                    !- Surface Type
    Exterior Wall South,     !- Construction Name
    APTO04_P4,               !- Zone Name
    Outdoors,                !- Outside Boundary Condition
    ,                        !- Outside Boundary Condition Object
    SunExposed,              !- Sun Exposure
    WindExposed,             !- Wind Exposure
    ,                        !- View Factor to Ground
    4,                       !- Number of Vertices
    -24.800000000000,        !- Vertex 1 X-coordinate {m}
    0.000000000000,          !- Vertex 1 Y-coordinate {m}
    11.400000000000,         !- Vertex 1 Z-coordinate {m}
    -24.800000000000,        !- Vertex 2 X-coordinate {m}
    0.000000000000,          !- Vertex 2 Y-coordinate {m}
    8.550000000000,          !- Vertex 2 Z-coordinate {m}
    -31.600000000000,        !- Vertex 3 X-coordinate {m}
    0.000000000000,          !- Vertex 3 Y-coordinate {m}
    8.550000000000,          !- Vertex 3 Z-coordinate {m}
    -31.600000000000,        !- Vertex 4 X-coordinate {m}
    0.000000000000,          !- Vertex 4 Y-coordinate {m}
    11.400000000000;         !- Vertex 4 Z-coordinate {m}

BuildingSurface:Detailed,
    5221CE,                  !- Name
    Wall,                    !- Surface Type
    Exterior Wall East,      !- Construction Name
    APTO04_P4,               !- Zone Name
    Outdoors,                !- Outside Boundary Condition
    ,                        !- Outside Boundary Condition Object
    SunExposed,              !- Sun Exposure
    WindExposed,             !- Wind Exposure
    ,                        !- View Factor to Ground
    4,                       !- Number of Vertices
    -31.600000000000,        !- Vertex 1 X-coordinate {m}
    0.000000000000,          !- Vertex 1 Y-coordinate {m}
    11.400000000000,         !- Vertex 1 Z-coordinate {m}
    -31.600000000000,        !- Vertex 2 X-coordinate {m}
    0.000000000000,          !- Vertex 2 Y-coordinate {m}
    8.550000000000,          !- Vertex 2 Z-coordinate {m}
    -31.600000000000,        !- Vertex 3 X-coordinate {m}
    -6.500000000000,         !- Vertex 3 Y-coordinate {m}
    8.550000000000,          !- Vertex 3 Z-coordinate {m}
    -31.600000000000,        !- Vertex 4 X-coordinate {m}
    -6.500000000000,         !- Vertex 4 Y-coordinate {m}
    11.400000000000;         !- Vertex 4 Z-coordinate {m}

BuildingSurface:Detailed,
    7B6543,                  !- Name
    Floor,                   !- Surface Type
    Interior Floor,          !- Construction Name
    APTO01_P4,               !- Zone Name
    Surface,                 !- Outside Boundary Condition
    450B3C,                  !- Outside Boundary Condition Object
    NoSun,                   !- Sun Exposure
    NoWind,                  !- Wind Exposure
    ,                        !- View Factor to Ground
    4,                       !- Number of Vertices
    -6.800000000000,         !- Vertex 1 X-coordinate {m}
    -6.500000000000,         !- Vertex 1 Y-coordinate {m}
    8.550000000000,          !- Vertex 1 Z-coordinate {m}
    -6.800000000000,         !- Vertex 2 X-coordinate {m}
    0.000000000000,          !- Vertex 2 Y-coordinate {m}
    8.550000000000,          !- Vertex 2 Z-coordinate {m}
    0.000000000000,          !- Vertex 3 X-coordinate {m}
    0.000000000000,          !- Vertex 3 Y-coordinate {m}
    8.550000000000,          !- Vertex 3 Z-coordinate {m}
    0.000000000000,          !- Vertex 4 X-coordinate {m}
    -6.500000000000,         !- Vertex 4 Y-coordinate {m}
    8.550000000000;          !- Vertex 4 Z-coordinate {m}

BuildingSurface:Detailed,
    FDBD8B,                  !- Name
    Ceiling,                 !- Surface Type
    Interior Ceiling,        !- Construction Name
    APTO01_P4,               !- Zone Name
    Surface,                 !- Outside Boundary Condition
    C23761,                  !- Outside Boundary Condition Object
    NoSun,                   !- Sun Exposure
    NoWind,                  !- Wind Exposure
    ,                        !- View Factor to Ground
    4,                       !- Number of Vertices
    0.000000000000,          !- Vertex 1 X-coordinate {m}
    -6.500000000000,         !- Vertex 1 Y-coordinate {m}
    11.400000000000,         !- Vertex 1 Z-coordinate {m}
    0.000000000000,          !- Vertex 2 X-coordinate {m}
    0.000000000000,          !- Vertex 2 Y-coordinate {m}
    11.400000000000,         !- Vertex 2 Z-coordinate {m}
    -6.800000000000,         !- Vertex 3 X-coordinate {m}
    0.000000000000,          !- Vertex 3 Y-coordinate {m}
    11.400000000000,         !- Vertex 3 Z-coordinate {m}
    -6.800000000000,         !- Vertex 4 X-coordinate {m}
    -6.500000000000,         !- Vertex 4 Y-coordinate {m}
    11.400000000000;         !- Vertex 4 Z-coordinate {m}

BuildingSurface:Detailed,
    EE6173,                  !- Name
    Wall,                    !- Surface Type
    Exterior Wall South,     !- Construction Name
    APTO01_P4,               !- Zone Name
    Outdoors,                !- Outside Boundary Condition
    ,                        !- Outside Boundary Condition Object
    SunExposed,              !- Sun Exposure
    WindExposed,             !- Wind Exposure
    ,                        !- View Factor to Ground
    4,                       !- Number of Vertices
    0.000000000000,          !- Vertex 1 X-coordinate {m}
    0.000000000000,          !- Vertex 1 Y-coordinate {m}
    11.400000000000,         !- Vertex 1 Z-coordinate {m}
    0.000000000000,          !- Vertex 2 X-coordinate {m}
    0.000000000000,          !- Vertex 2 Y-coordinate {m}
    8.550000000000,          !- Vertex 2 Z-coordinate {m}
    -6.800000000000,         !- Vertex 3 X-coordinate {m}
    0.000000000000,          !- Vertex 3 Y-coordinate {m}
    8.550000000000,          !- Vertex 3 Z-coordinate {m}
    -6.800000000000,         !- Vertex 4 X-coordinate {m}
    0.000000000000,          !- Vertex 4 Y-coordinate {m}
    11.400000000000;         !- Vertex 4 Z-coordinate {m}

BuildingSurface:Detailed,
    A5E7A3,                  !- Name
    Wall,                    !- Surface Type
    Exterior Wall West,      !- Construction Name
    APTO01_P4,               !- Zone Name
    Outdoors,                !- Outside Boundary Condition
    ,                        !- Outside Boundary Condition Object
    SunExposed,              !- Sun Exposure
    WindExposed,             !- Wind Exposure
    ,                        !- View Factor to Ground
    4,                       !- Number of Vertices
    0.000000000000,          !- Vertex 1 X-coordinate {m}
    -6.500000000000,         !- Vertex 1 Y-coordinate {m}
    11.400000000000,         !- Vertex 1 Z-coordinate {m}
    0.000000000000,          !- Vertex 2 X-coordinate {m}
    -6.500000000000,         !- Vertex 2 Y-coordinate {m}
    8.550000000000,          !- Vertex 2 Z-coordinate {m}
    0.000000000000,          !- Vertex 3 X-coordinate {m}
    0.000000000000,          !- Vertex 3 Y-coordinate {m}
    8.550000000000,          !- Vertex 3 Z-coordinate {m}
    0.000000000000,          !- Vertex 4 X-coordinate {m}
    0.000000000000,          !- Vertex 4 Y-coordinate {m}
    11.400000000000;         !- Vertex 4 Z-coordinate {m}

BuildingSurface:Detailed,
    F917BA,                  !- Name
    Wall,                    !- Surface Type
    Exterior Wall North,     !- Construction Name
    APTO01_P4,               !- Zone Name
    Outdoors,                !- Outside Boundary Condition
    ,                        !- Outside Boundary Condition Object
    SunExposed,              !- Sun Exposure
    WindExposed,             !- Wind Exposure
    ,                        !- View Factor to Ground
    4,                       !- Number of Vertices
    -6.800000000000,         !- Vertex 1 X-coordinate {m}
    -6.500000000000,         !- Vertex 1 Y-coordinate {m}
    11.400000000000,         !- Vertex 1 Z-coordinate {m}
    -6.800000000000,         !- Vertex 2 X-coordinate {m}
    -6.500000000000,         !- Vertex 2 Y-coordinate {m}
    8.550000000000,          !- Vertex 2 Z-coordinate {m}
    0.000000000000,          !- Vertex 3 X-coordinate {m}
    -6.500000000000,         !- Vertex 3 Y-coordinate {m}
    8.550000000000,          !- Vertex 3 Z-coordinate {m}
    0.000000000000,          !- Vertex 4 X-coordinate {m}
    -6.500000000000,         !- Vertex 4 Y-coordinate {m}
    11.400000000000;         !- Vertex 4 Z-coordinate {m}

BuildingSurface:Detailed,
    78A414,                  !- Name
    Wall,                    !- Surface Type
    Exterior Wall East,      !- Construction Name
    APTO01_P4,               !- Zone Name
    Outdoors,                !- Outside Boundary Condition
    ,                        !- Outside Boundary Condition Object
    SunExposed,              !- Sun Exposure
    WindExposed,             !- Wind Exposure
    ,                        !- View Factor to Ground
    4,                       !- Number of Vertices
    -6.800000000000,         !- Vertex 1 X-coordinate {m}
    0.000000000000,          !- Vertex 1 Y-coordinate {m}
    11.400000000000,         !- Vertex 1 Z-coordinate {m}
    -6.800000000000,         !- Vertex 2 X-coordinate {m}
    0.000000000000,          !- Vertex 2 Y-coordinate {m}
    8.550000000000,          !- Vertex 2 Z-coordinate {m}
    -6.800000000000,         !- Vertex 3 X-coordinate {m}
    -0.600000000000,         !- Vertex 3 Y-coordinate {m}
    8.550000000000,          !- Vertex 3 Z-coordinate {m}
    -6.800000000000,         !- Vertex 4 X-coordinate {m}
    -0.600000000000,         !- Vertex 4 Y-coordinate {m}
    11.400000000000;         !- Vertex 4 Z-coordinate {m}

BuildingSurface:Detailed,
    C98D2B,                  !- Name
    Floor,                   !- Surface Type
    Interior Floor,          !- Construction Name
    CIRCUL01_P4,             !- Zone Name
    Surface,                 !- Outside Boundary Condition
    D60BFB,                  !- Outside Boundary Condition Object
    NoSun,                   !- Sun Exposure
    NoWind,                  !- Wind Exposure
    ,                        !- View Factor to Ground
    4,                       !- Number of Vertices
    -9.000000000000,         !- Vertex 1 X-coordinate {m}
    -6.500000000000,         !- Vertex 1 Y-coordinate {m}
    8.550000000000,          !- Vertex 1 Z-coordinate {m}
    -9.000000000000,         !- Vertex 2 X-coordinate {m}
    -0.600000000000,         !- Vertex 2 Y-coordinate {m}
    8.550000000000,          !- Vertex 2 Z-coordinate {m}
    -6.800000000000,         !- Vertex 3 X-coordinate {m}
    -0.600000000000,         !- Vertex 3 Y-coordinate {m}
    8.550000000000,          !- Vertex 3 Z-coordinate {m}
    -6.800000000000,         !- Vertex 4 X-coordinate {m}
    -6.500000000000,         !- Vertex 4 Y-coordinate {m}
    8.550000000000;          !- Vertex 4 Z-coordinate {m}

BuildingSurface:Detailed,
    A8C02D,                  !- Name
    Ceiling,                 !- Surface Type
    Interior Ceiling,        !- Construction Name
    CIRCUL01_P4,             !- Zone Name
    Surface,                 !- Outside Boundary Condition
    E6E78C,                  !- Outside Boundary Condition Object
    NoSun,                   !- Sun Exposure
    NoWind,                  !- Wind Exposure
    ,                        !- View Factor to Ground
    4,                       !- Number of Vertices
    -6.800000000000,         !- Vertex 1 X-coordinate {m}
    -6.500000000000,         !- Vertex 1 Y-coordinate {m}
    11.400000000000,         !- Vertex 1 Z-coordinate {m}
    -6.800000000000,         !- Vertex 2 X-coordinate {m}
    -0.600000000000,         !- Vertex 2 Y-coordinate {m}
    11.400000000000,         !- Vertex 2 Z-coordinate {m}
    -9.000000000000,         !- Vertex 3 X-coordinate {m}
    -0.600000000000,         !- Vertex 3 Y-coordinate {m}
    11.400000000000,         !- Vertex 3 Z-coordinate {m}
    -9.000000000000,         !- Vertex 4 X-coordinate {m}
    -6.500000000000,         !- Vertex 4 Y-coordinate {m}
    11.400000000000;         !- Vertex 4 Z-coordinate {m}

BuildingSurface:Detailed,
    5E5271,                  !- Name
    Wall,                    !- Surface Type
    Exterior Wall North,     !- Construction Name
    CIRCUL01_P4,             !- Zone Name
    Outdoors,                !- Outside Boundary Condition
    ,                        !- Outside Boundary Condition Object
    SunExposed,              !- Sun Exposure
    WindExposed,             !- Wind Exposure
    ,                        !- View Factor to Ground
    4,                       !- Number of Vertices
    -9.000000000000,         !- Vertex 1 X-coordinate {m}
    -6.500000000000,         !- Vertex 1 Y-coordinate {m}
    11.400000000000,         !- Vertex 1 Z-coordinate {m}
    -9.000000000000,         !- Vertex 2 X-coordinate {m}
    -6.500000000000,         !- Vertex 2 Y-coordinate {m}
    8.550000000000,          !- Vertex 2 Z-coordinate {m}
    -6.800000000000,         !- Vertex 3 X-coordinate {m}
    -6.500000000000,         !- Vertex 3 Y-coordinate {m}
    8.550000000000,          !- Vertex 3 Z-coordinate {m}
    -6.800000000000,         !- Vertex 4 X-coordinate {m}
    -6.500000000000,         !- Vertex 4 Y-coordinate {m}
    11.400000000000;         !- Vertex 4 Z-coordinate {m}

BuildingSurface:Detailed,
    1993F1,                  !- Name
    Wall,                    !- Surface Type
    Interior Wall,           !- Construction Name
    CIRCUL01_P4,             !- Zone Name
    Surface,                 !- Outside Boundary Condition
    172F04,                  !- Outside Boundary Condition Object
    NoSun,                   !- Sun Exposure
    NoWind,                  !- Wind Exposure
    ,                        !- View Factor to Ground
    4,                       !- Number of Vertices
    -9.000000000000,         !- Vertex 1 X-coordinate {m}
    -0.600000000000,         !- Vertex 1 Y-coordinate {m}
    11.400000000000,         !- Vertex 1 Z-coordinate {m}
    -9.000000000000,         !- Vertex 2 X-coordinate {m}
    -0.600000000000,         !- Vertex 2 Y-coordinate {m}
    8.550000000000,          !- Vertex 2 Z-coordinate {m}
    -9.000000000000,         !- Vertex 3 X-coordinate {m}
    -6.500000000000,         !- Vertex 3 Y-coordinate {m}
    8.550000000000,          !- Vertex 3 Z-coordinate {m}
    -9.000000000000,         !- Vertex 4 X-coordinate {m}
    -6.500000000000,         !- Vertex 4 Y-coordinate {m}
    11.400000000000;         !- Vertex 4 Z-coordinate {m}

BuildingSurface:Detailed,
    268945,                  !- Name
    Wall,                    !- Surface Type
    Exterior Wall South,     !- Construction Name
    CIRCUL01_P4,             !- Zone Name
    Outdoors,                !- Outside Boundary Condition
    ,                        !- Outside Boundary Condition Object
    SunExposed,              !- Sun Exposure
    WindExposed,             !- Wind Exposure
    ,                        !- View Factor to Ground
    4,                       !- Number of Vertices
    -6.800000000000,         !- Vertex 1 X-coordinate {m}
    -0.600000000000,         !- Vertex 1 Y-coordinate {m}
    11.400000000000,         !- Vertex 1 Z-coordinate {m}
    -6.800000000000,         !- Vertex 2 X-coordinate {m}
    -0.600000000000,         !- Vertex 2 Y-coordinate {m}
    8.550000000000,          !- Vertex 2 Z-coordinate {m}
    -9.000000000000,         !- Vertex 3 X-coordinate {m}
    -0.600000000000,         !- Vertex 3 Y-coordinate {m}
    8.550000000000,          !- Vertex 3 Z-coordinate {m}
    -9.000000000000,         !- Vertex 4 X-coordinate {m}
    -0.600000000000,         !- Vertex 4 Y-coordinate {m}
    11.400000000000;         !- Vertex 4 Z-coordinate {m}

BuildingSurface:Detailed,
    E161B1,                  !- Name
    Wall,                    !- Surface Type
    Interior Wall,           !- Construction Name
    CIRCUL01_P4,             !- Zone Name
    Surface,                 !- Outside Boundary Condition
    EC5534,                  !- Outside Boundary Condition Object
    NoSun,                   !- Sun Exposure
    NoWind,                  !- Wind Exposure
    ,                        !- View Factor to Ground
    4,                       !- Number of Vertices
    -6.800000000000,         !- Vertex 1 X-coordinate {m}
    -6.500000000000,         !- Vertex 1 Y-coordinate {m}
    11.400000000000,         !- Vertex 1 Z-coordinate {m}
    -6.800000000000,         !- Vertex 2 X-coordinate {m}
    -6.500000000000,         !- Vertex 2 Y-coordinate {m}
    8.550000000000,          !- Vertex 2 Z-coordinate {m}
    -6.800000000000,         !- Vertex 3 X-coordinate {m}
    -0.600000000000,         !- Vertex 3 Y-coordinate {m}
    8.550000000000,          !- Vertex 3 Z-coordinate {m}
    -6.800000000000,         !- Vertex 4 X-coordinate {m}
    -0.600000000000,         !- Vertex 4 Y-coordinate {m}
    11.400000000000;         !- Vertex 4 Z-coordinate {m}

BuildingSurface:Detailed,
    C23761,                  !- Name
    Floor,                   !- Surface Type
    Interior Floor,          !- Construction Name
    APTO01_P5,               !- Zone Name
    Surface,                 !- Outside Boundary Condition
    FDBD8B,                  !- Outside Boundary Condition Object
    NoSun,                   !- Sun Exposure
    NoWind,                  !- Wind Exposure
    ,                        !- View Factor to Ground
    4,                       !- Number of Vertices
    -6.800000000000,         !- Vertex 1 X-coordinate {m}
    -6.500000000000,         !- Vertex 1 Y-coordinate {m}
    11.400000000000,         !- Vertex 1 Z-coordinate {m}
    -6.800000000000,         !- Vertex 2 X-coordinate {m}
    0.000000000000,          !- Vertex 2 Y-coordinate {m}
    11.400000000000,         !- Vertex 2 Z-coordinate {m}
    0.000000000000,          !- Vertex 3 X-coordinate {m}
    0.000000000000,          !- Vertex 3 Y-coordinate {m}
    11.400000000000,         !- Vertex 3 Z-coordinate {m}
    0.000000000000,          !- Vertex 4 X-coordinate {m}
    -6.500000000000,         !- Vertex 4 Y-coordinate {m}
    11.400000000000;         !- Vertex 4 Z-coordinate {m}

BuildingSurface:Detailed,
    5540FF,                  !- Name
    Roof,                    !- Surface Type
    Exterior Roof,           !- Construction Name
    APTO01_P5,               !- Zone Name
    Outdoors,                !- Outside Boundary Condition
    ,                        !- Outside Boundary Condition Object
    SunExposed,              !- Sun Exposure
    WindExposed,             !- Wind Exposure
    ,                        !- View Factor to Ground
    4,                       !- Number of Vertices
    0.000000000000,          !- Vertex 1 X-coordinate {m}
    -6.500000000000,         !- Vertex 1 Y-coordinate {m}
    14.250000000000,         !- Vertex 1 Z-coordinate {m}
    0.000000000000,          !- Vertex 2 X-coordinate {m}
    0.000000000000,          !- Vertex 2 Y-coordinate {m}
    14.250000000000,         !- Vertex 2 Z-coordinate {m}
    -6.800000000000,         !- Vertex 3 X-coordinate {m}
    0.000000000000,          !- Vertex 3 Y-coordinate {m}
    14.250000000000,         !- Vertex 3 Z-coordinate {m}
    -6.800000000000,         !- Vertex 4 X-coordinate {m}
    -6.500000000000,         !- Vertex 4 Y-coordinate {m}
    14.250000000000;         !- Vertex 4 Z-coordinate {m}

BuildingSurface:Detailed,
    127F6E,                  !- Name
    Wall,                    !- Surface Type
    Exterior Wall South,     !- Construction Name
    APTO01_P5,               !- Zone Name
    Outdoors,                !- Outside Boundary Condition
    ,                        !- Outside Boundary Condition Object
    SunExposed,              !- Sun Exposure
    WindExposed,             !- Wind Exposure
    ,                        !- View Factor to Ground
    4,                       !- Number of Vertices
    0.000000000000,          !- Vertex 1 X-coordinate {m}
    0.000000000000,          !- Vertex 1 Y-coordinate {m}
    14.250000000000,         !- Vertex 1 Z-coordinate {m}
    0.000000000000,          !- Vertex 2 X-coordinate {m}
    0.000000000000,          !- Vertex 2 Y-coordinate {m}
    11.400000000000,         !- Vertex 2 Z-coordinate {m}
    -6.800000000000,         !- Vertex 3 X-coordinate {m}
    0.000000000000,          !- Vertex 3 Y-coordinate {m}
    11.400000000000,         !- Vertex 3 Z-coordinate {m}
    -6.800000000000,         !- Vertex 4 X-coordinate {m}
    0.000000000000,          !- Vertex 4 Y-coordinate {m}
    14.250000000000;         !- Vertex 4 Z-coordinate {m}

BuildingSurface:Detailed,
    7A1F92,                  !- Name
    Wall,                    !- Surface Type
    Exterior Wall West,      !- Construction Name
    APTO01_P5,               !- Zone Name
    Outdoors,                !- Outside Boundary Condition
    ,                        !- Outside Boundary Condition Object
    SunExposed,              !- Sun Exposure
    WindExposed,             !- Wind Exposure
    ,                        !- View Factor to Ground
    4,                       !- Number of Vertices
    0.000000000000,          !- Vertex 1 X-coordinate {m}
    -6.500000000000,         !- Vertex 1 Y-coordinate {m}
    14.250000000000,         !- Vertex 1 Z-coordinate {m}
    0.000000000000,          !- Vertex 2 X-coordinate {m}
    -6.500000000000,         !- Vertex 2 Y-coordinate {m}
    11.400000000000,         !- Vertex 2 Z-coordinate {m}
    0.000000000000,          !- Vertex 3 X-coordinate {m}
    0.000000000000,          !- Vertex 3 Y-coordinate {m}
    11.400000000000,         !- Vertex 3 Z-coordinate {m}
    0.000000000000,          !- Vertex 4 X-coordinate {m}
    0.000000000000,          !- Vertex 4 Y-coordinate {m}
    14.250000000000;         !- Vertex 4 Z-coordinate {m}

BuildingSurface:Detailed,
    327C39,                  !- Name
    Wall,                    !- Surface Type
    Exterior Wall North,     !- Construction Name
    APTO01_P5,               !- Zone Name
    Outdoors,                !- Outside Boundary Condition
    ,                        !- Outside Boundary Condition Object
    SunExposed,              !- Sun Exposure
    WindExposed,             !- Wind Exposure
    ,                        !- View Factor to Ground
    4,                       !- Number of Vertices
    -6.800000000000,         !- Vertex 1 X-coordinate {m}
    -6.500000000000,         !- Vertex 1 Y-coordinate {m}
    14.250000000000,         !- Vertex 1 Z-coordinate {m}
    -6.800000000000,         !- Vertex 2 X-coordinate {m}
    -6.500000000000,         !- Vertex 2 Y-coordinate {m}
    11.400000000000,         !- Vertex 2 Z-coordinate {m}
    0.000000000000,          !- Vertex 3 X-coordinate {m}
    -6.500000000000,         !- Vertex 3 Y-coordinate {m}
    11.400000000000,         !- Vertex 3 Z-coordinate {m}
    0.000000000000,          !- Vertex 4 X-coordinate {m}
    -6.500000000000,         !- Vertex 4 Y-coordinate {m}
    14.250000000000;         !- Vertex 4 Z-coordinate {m}

BuildingSurface:Detailed,
    22DE47,                  !- Name
    Wall,                    !- Surface Type
    Exterior Wall East,      !- Construction Name
    APTO01_P5,               !- Zone Name
    Outdoors,                !- Outside Boundary Condition
    ,                        !- Outside Boundary Condition Object
    SunExposed,              !- Sun Exposure
    WindExposed,             !- Wind Exposure
    ,                        !- View Factor to Ground
    4,                       !- Number of Vertices
    -6.800000000000,         !- Vertex 1 X-coordinate {m}
    0.000000000000,          !- Vertex 1 Y-coordinate {m}
    14.250000000000,         !- Vertex 1 Z-coordinate {m}
    -6.800000000000,         !- Vertex 2 X-coordinate {m}
    0.000000000000,          !- Vertex 2 Y-coordinate {m}
    11.400000000000,         !- Vertex 2 Z-coordinate {m}
    -6.800000000000,         !- Vertex 3 X-coordinate {m}
    -0.600000000000,         !- Vertex 3 Y-coordinate {m}
    11.400000000000,         !- Vertex 3 Z-coordinate {m}
    -6.800000000000,         !- Vertex 4 X-coordinate {m}
    -0.600000000000,         !- Vertex 4 Y-coordinate {m}
    14.250000000000;         !- Vertex 4 Z-coordinate {m}

BuildingSurface:Detailed,
    BA2640,                  !- Name
    Floor,                   !- Surface Type
    Interior Floor,          !- Construction Name
    APTO02_P5,               !- Zone Name
    Surface,                 !- Outside Boundary Condition
    D188EC,                  !- Outside Boundary Condition Object
    NoSun,                   !- Sun Exposure
    NoWind,                  !- Wind Exposure
    ,                        !- View Factor to Ground
    4,                       !- Number of Vertices
    -15.800000000000,        !- Vertex 1 X-coordinate {m}
    -6.500000000000,         !- Vertex 1 Y-coordinate {m}
    11.400000000000,         !- Vertex 1 Z-coordinate {m}
    -15.800000000000,        !- Vertex 2 X-coordinate {m}
    0.000000000000,          !- Vertex 2 Y-coordinate {m}
    11.400000000000,         !- Vertex 2 Z-coordinate {m}
    -9.000000000000,         !- Vertex 3 X-coordinate {m}
    0.000000000000,          !- Vertex 3 Y-coordinate {m}
    11.400000000000,         !- Vertex 3 Z-coordinate {m}
    -9.000000000000,         !- Vertex 4 X-coordinate {m}
    -6.500000000000,         !- Vertex 4 Y-coordinate {m}
    11.400000000000;         !- Vertex 4 Z-coordinate {m}

BuildingSurface:Detailed,
    9C8053,                  !- Name
    Roof,                    !- Surface Type
    Exterior Roof,           !- Construction Name
    APTO02_P5,               !- Zone Name
    Outdoors,                !- Outside Boundary Condition
    ,                        !- Outside Boundary Condition Object
    SunExposed,              !- Sun Exposure
    WindExposed,             !- Wind Exposure
    ,                        !- View Factor to Ground
    4,                       !- Number of Vertices
    -9.000000000000,         !- Vertex 1 X-coordinate {m}
    -6.500000000000,         !- Vertex 1 Y-coordinate {m}
    14.250000000000,         !- Vertex 1 Z-coordinate {m}
    -9.000000000000,         !- Vertex 2 X-coordinate {m}
    0.000000000000,          !- Vertex 2 Y-coordinate {m}
    14.250000000000,         !- Vertex 2 Z-coordinate {m}
    -15.800000000000,        !- Vertex 3 X-coordinate {m}
    0.000000000000,          !- Vertex 3 Y-coordinate {m}
    14.250000000000,         !- Vertex 3 Z-coordinate {m}
    -15.800000000000,        !- Vertex 4 X-coordinate {m}
    -6.500000000000,         !- Vertex 4 Y-coordinate {m}
    14.250000000000;         !- Vertex 4 Z-coordinate {m}

BuildingSurface:Detailed,
    CC7F2C,                  !- Name
    Wall,                    !- Surface Type
    Exterior Wall North,     !- Construction Name
    APTO02_P5,               !- Zone Name
    Outdoors,                !- Outside Boundary Condition
    ,                        !- Outside Boundary Condition Object
    SunExposed,              !- Sun Exposure
    WindExposed,             !- Wind Exposure
    ,                        !- View Factor to Ground
    4,                       !- Number of Vertices
    -15.800000000000,        !- Vertex 1 X-coordinate {m}
    -6.500000000000,         !- Vertex 1 Y-coordinate {m}
    14.250000000000,         !- Vertex 1 Z-coordinate {m}
    -15.800000000000,        !- Vertex 2 X-coordinate {m}
    -6.500000000000,         !- Vertex 2 Y-coordinate {m}
    11.400000000000,         !- Vertex 2 Z-coordinate {m}
    -9.000000000000,         !- Vertex 3 X-coordinate {m}
    -6.500000000000,         !- Vertex 3 Y-coordinate {m}
    11.400000000000,         !- Vertex 3 Z-coordinate {m}
    -9.000000000000,         !- Vertex 4 X-coordinate {m}
    -6.500000000000,         !- Vertex 4 Y-coordinate {m}
    14.250000000000;         !- Vertex 4 Z-coordinate {m}

BuildingSurface:Detailed,
    F17441,                  !- Name
    Wall,                    !- Surface Type
    Interior Wall,           !- Construction Name
    APTO02_P5,               !- Zone Name
    Surface,                 !- Outside Boundary Condition
    BF1451,                  !- Outside Boundary Condition Object
    NoSun,                   !- Sun Exposure
    NoWind,                  !- Wind Exposure
    ,                        !- View Factor to Ground
    4,                       !- Number of Vertices
    -9.000000000000,         !- Vertex 1 X-coordinate {m}
    -6.500000000000,         !- Vertex 1 Y-coordinate {m}
    14.250000000000,         !- Vertex 1 Z-coordinate {m}
    -9.000000000000,         !- Vertex 2 X-coordinate {m}
    -6.500000000000,         !- Vertex 2 Y-coordinate {m}
    11.400000000000,         !- Vertex 2 Z-coordinate {m}
    -9.000000000000,         !- Vertex 3 X-coordinate {m}
    -0.600000000000,         !- Vertex 3 Y-coordinate {m}
    11.400000000000,         !- Vertex 3 Z-coordinate {m}
    -9.000000000000,         !- Vertex 4 X-coordinate {m}
    -0.600000000000,         !- Vertex 4 Y-coordinate {m}
    14.250000000000;         !- Vertex 4 Z-coordinate {m}

BuildingSurface:Detailed,
    D95C7F,                  !- Name
    Wall,                    !- Surface Type
    Exterior Wall South,     !- Construction Name
    APTO02_P5,               !- Zone Name
    Outdoors,                !- Outside Boundary Condition
    ,                        !- Outside Boundary Condition Object
    SunExposed,              !- Sun Exposure
    WindExposed,             !- Wind Exposure
    ,                        !- View Factor to Ground
    4,                       !- Number of Vertices
    -9.000000000000,         !- Vertex 1 X-coordinate {m}
    0.000000000000,          !- Vertex 1 Y-coordinate {m}
    14.250000000000,         !- Vertex 1 Z-coordinate {m}
    -9.000000000000,         !- Vertex 2 X-coordinate {m}
    0.000000000000,          !- Vertex 2 Y-coordinate {m}
    11.400000000000,         !- Vertex 2 Z-coordinate {m}
    -15.800000000000,        !- Vertex 3 X-coordinate {m}
    0.000000000000,          !- Vertex 3 Y-coordinate {m}
    11.400000000000,         !- Vertex 3 Z-coordinate {m}
    -15.800000000000,        !- Vertex 4 X-coordinate {m}
    0.000000000000,          !- Vertex 4 Y-coordinate {m}
    14.250000000000;         !- Vertex 4 Z-coordinate {m}

BuildingSurface:Detailed,
    61BD18,                  !- Name
    Wall,                    !- Surface Type
    Interior Wall,           !- Construction Name
    APTO02_P5,               !- Zone Name
    Surface,                 !- Outside Boundary Condition
    BB3F2D,                  !- Outside Boundary Condition Object
    NoSun,                   !- Sun Exposure
    NoWind,                  !- Wind Exposure
    ,                        !- View Factor to Ground
    4,                       !- Number of Vertices
    -15.800000000000,        !- Vertex 1 X-coordinate {m}
    0.000000000000,          !- Vertex 1 Y-coordinate {m}
    14.250000000000,         !- Vertex 1 Z-coordinate {m}
    -15.800000000000,        !- Vertex 2 X-coordinate {m}
    0.000000000000,          !- Vertex 2 Y-coordinate {m}
    11.400000000000,         !- Vertex 2 Z-coordinate {m}
    -15.800000000000,        !- Vertex 3 X-coordinate {m}
    -6.500000000000,         !- Vertex 3 Y-coordinate {m}
    11.400000000000,         !- Vertex 3 Z-coordinate {m}
    -15.800000000000,        !- Vertex 4 X-coordinate {m}
    -6.500000000000,         !- Vertex 4 Y-coordinate {m}
    14.250000000000;         !- Vertex 4 Z-coordinate {m}

BuildingSurface:Detailed,
    E6E78C,                  !- Name
    Floor,                   !- Surface Type
    Interior Floor,          !- Construction Name
    CIRCUL01_P5,             !- Zone Name
    Surface,                 !- Outside Boundary Condition
    A8C02D,                  !- Outside Boundary Condition Object
    NoSun,                   !- Sun Exposure
    NoWind,                  !- Wind Exposure
    ,                        !- View Factor to Ground
    4,                       !- Number of Vertices
    -9.000000000000,         !- Vertex 1 X-coordinate {m}
    -6.500000000000,         !- Vertex 1 Y-coordinate {m}
    11.400000000000,         !- Vertex 1 Z-coordinate {m}
    -9.000000000000,         !- Vertex 2 X-coordinate {m}
    -0.600000000000,         !- Vertex 2 Y-coordinate {m}
    11.400000000000,         !- Vertex 2 Z-coordinate {m}
    -6.800000000000,         !- Vertex 3 X-coordinate {m}
    -0.600000000000,         !- Vertex 3 Y-coordinate {m}
    11.400000000000,         !- Vertex 3 Z-coordinate {m}
    -6.800000000000,         !- Vertex 4 X-coordinate {m}
    -6.500000000000,         !- Vertex 4 Y-coordinate {m}
    11.400000000000;         !- Vertex 4 Z-coordinate {m}

BuildingSurface:Detailed,
    D99638,                  !- Name
    Roof,                    !- Surface Type
    Exterior Roof,           !- Construction Name
    CIRCUL01_P5,             !- Zone Name
    Outdoors,                !- Outside Boundary Condition
    ,                        !- Outside Boundary Condition Object
    SunExposed,              !- Sun Exposure
    WindExposed,             !- Wind Exposure
    ,                        !- View Factor to Ground
    4,                       !- Number of Vertices
    -6.800000000000,         !- Vertex 1 X-coordinate {m}
    -6.500000000000,         !- Vertex 1 Y-coordinate {m}
    14.250000000000,         !- Vertex 1 Z-coordinate {m}
    -6.800000000000,         !- Vertex 2 X-coordinate {m}
    -0.600000000000,         !- Vertex 2 Y-coordinate {m}
    14.250000000000,         !- Vertex 2 Z-coordinate {m}
    -9.000000000000,         !- Vertex 3 X-coordinate {m}
    -0.600000000000,         !- Vertex 3 Y-coordinate {m}
    14.250000000000,         !- Vertex 3 Z-coordinate {m}
    -9.000000000000,         !- Vertex 4 X-coordinate {m}
    -6.500000000000,         !- Vertex 4 Y-coordinate {m}
    14.250000000000;         !- Vertex 4 Z-coordinate {m}

BuildingSurface:Detailed,
    74CA65,                  !- Name
    Wall,                    !- Surface Type
    Exterior Wall North,     !- Construction Name
    CIRCUL01_P5,             !- Zone Name
    Outdoors,                !- Outside Boundary Condition
    ,                        !- Outside Boundary Condition Object
    SunExposed,              !- Sun Exposure
    WindExposed,             !- Wind Exposure
    ,                        !- View Factor to Ground
    4,                       !- Number of Vertices
    -9.000000000000,         !- Vertex 1 X-coordinate {m}
    -6.500000000000,         !- Vertex 1 Y-coordinate {m}
    14.250000000000,         !- Vertex 1 Z-coordinate {m}
    -9.000000000000,         !- Vertex 2 X-coordinate {m}
    -6.500000000000,         !- Vertex 2 Y-coordinate {m}
    11.400000000000,         !- Vertex 2 Z-coordinate {m}
    -6.800000000000,         !- Vertex 3 X-coordinate {m}
    -6.500000000000,         !- Vertex 3 Y-coordinate {m}
    11.400000000000,         !- Vertex 3 Z-coordinate {m}
    -6.800000000000,         !- Vertex 4 X-coordinate {m}
    -6.500000000000,         !- Vertex 4 Y-coordinate {m}
    14.250000000000;         !- Vertex 4 Z-coordinate {m}

BuildingSurface:Detailed,
    BF1451,                  !- Name
    Wall,                    !- Surface Type
    Interior Wall,           !- Construction Name
    CIRCUL01_P5,             !- Zone Name
    Surface,                 !- Outside Boundary Condition
    F17441,                  !- Outside Boundary Condition Object
    NoSun,                   !- Sun Exposure
    NoWind,                  !- Wind Exposure
    ,                        !- View Factor to Ground
    4,                       !- Number of Vertices
    -9.000000000000,         !- Vertex 1 X-coordinate {m}
    -0.600000000000,         !- Vertex 1 Y-coordinate {m}
    14.250000000000,         !- Vertex 1 Z-coordinate {m}
    -9.000000000000,         !- Vertex 2 X-coordinate {m}
    -0.600000000000,         !- Vertex 2 Y-coordinate {m}
    11.400000000000,         !- Vertex 2 Z-coordinate {m}
    -9.000000000000,         !- Vertex 3 X-coordinate {m}
    -6.500000000000,         !- Vertex 3 Y-coordinate {m}
    11.400000000000,         !- Vertex 3 Z-coordinate {m}
    -9.000000000000,         !- Vertex 4 X-coordinate {m}
    -6.500000000000,         !- Vertex 4 Y-coordinate {m}
    14.250000000000;         !- Vertex 4 Z-coordinate {m}

BuildingSurface:Detailed,
    E94494,                  !- Name
    Wall,                    !- Surface Type
    Exterior Wall South,     !- Construction Name
    CIRCUL01_P5,             !- Zone Name
    Outdoors,                !- Outside Boundary Condition
    ,                        !- Outside Boundary Condition Object
    SunExposed,              !- Sun Exposure
    WindExposed,             !- Wind Exposure
    ,                        !- View Factor to Ground
    4,                       !- Number of Vertices
    -6.800000000000,         !- Vertex 1 X-coordinate {m}
    -0.600000000000,         !- Vertex 1 Y-coordinate {m}
    14.250000000000,         !- Vertex 1 Z-coordinate {m}
    -6.800000000000,         !- Vertex 2 X-coordinate {m}
    -0.600000000000,         !- Vertex 2 Y-coordinate {m}
    11.400000000000,         !- Vertex 2 Z-coordinate {m}
    -9.000000000000,         !- Vertex 3 X-coordinate {m}
    -0.600000000000,         !- Vertex 3 Y-coordinate {m}
    11.400000000000,         !- Vertex 3 Z-coordinate {m}
    -9.000000000000,         !- Vertex 4 X-coordinate {m}
    -0.600000000000,         !- Vertex 4 Y-coordinate {m}
    14.250000000000;         !- Vertex 4 Z-coordinate {m}

BuildingSurface:Detailed,
    3570AB,                  !- Name
    Wall,                    !- Surface Type
    Interior Wall,           !- Construction Name
    CIRCUL01_P5,             !- Zone Name
    Surface,                 !- Outside Boundary Condition
    622A68,                  !- Outside Boundary Condition Object
    NoSun,                   !- Sun Exposure
    NoWind,                  !- Wind Exposure
    ,                        !- View Factor to Ground
    4,                       !- Number of Vertices
    -6.800000000000,         !- Vertex 1 X-coordinate {m}
    -6.500000000000,         !- Vertex 1 Y-coordinate {m}
    14.250000000000,         !- Vertex 1 Z-coordinate {m}
    -6.800000000000,         !- Vertex 2 X-coordinate {m}
    -6.500000000000,         !- Vertex 2 Y-coordinate {m}
    11.400000000000,         !- Vertex 2 Z-coordinate {m}
    -6.800000000000,         !- Vertex 3 X-coordinate {m}
    -0.600000000000,         !- Vertex 3 Y-coordinate {m}
    11.400000000000,         !- Vertex 3 Z-coordinate {m}
    -6.800000000000,         !- Vertex 4 X-coordinate {m}
    -0.600000000000,         !- Vertex 4 Y-coordinate {m}
    14.250000000000;         !- Vertex 4 Z-coordinate {m}

BuildingSurface:Detailed,
    4C2265,                  !- Name
    Floor,                   !- Surface Type
    Interior Floor,          !- Construction Name
    CIRCUL02_P5,             !- Zone Name
    Surface,                 !- Outside Boundary Condition
    11BC62,                  !- Outside Boundary Condition Object
    NoSun,                   !- Sun Exposure
    NoWind,                  !- Wind Exposure
    ,                        !- View Factor to Ground
    4,                       !- Number of Vertices
    -24.800000000000,        !- Vertex 1 X-coordinate {m}
    -6.500000000000,         !- Vertex 1 Y-coordinate {m}
    11.400000000000,         !- Vertex 1 Z-coordinate {m}
    -24.800000000000,        !- Vertex 2 X-coordinate {m}
    -0.600000000000,         !- Vertex 2 Y-coordinate {m}
    11.400000000000,         !- Vertex 2 Z-coordinate {m}
    -22.600000000000,        !- Vertex 3 X-coordinate {m}
    -0.600000000000,         !- Vertex 3 Y-coordinate {m}
    11.400000000000,         !- Vertex 3 Z-coordinate {m}
    -22.600000000000,        !- Vertex 4 X-coordinate {m}
    -6.500000000000,         !- Vertex 4 Y-coordinate {m}
    11.400000000000;         !- Vertex 4 Z-coordinate {m}

BuildingSurface:Detailed,
    8F1BFE,                  !- Name
    Roof,                    !- Surface Type
    Exterior Roof,           !- Construction Name
    CIRCUL02_P5,             !- Zone Name
    Outdoors,                !- Outside Boundary Condition
    ,                        !- Outside Boundary Condition Object
    SunExposed,              !- Sun Exposure
    WindExposed,             !- Wind Exposure
    ,                        !- View Factor to Ground
    4,                       !- Number of Vertices
    -22.600000000000,        !- Vertex 1 X-coordinate {m}
    -6.500000000000,         !- Vertex 1 Y-coordinate {m}
    14.250000000000,         !- Vertex 1 Z-coordinate {m}
    -22.600000000000,        !- Vertex 2 X-coordinate {m}
    -0.600000000000,         !- Vertex 2 Y-coordinate {m}
    14.250000000000,         !- Vertex 2 Z-coordinate {m}
    -24.800000000000,        !- Vertex 3 X-coordinate {m}
    -0.600000000000,         !- Vertex 3 Y-coordinate {m}
    14.250000000000,         !- Vertex 3 Z-coordinate {m}
    -24.800000000000,        !- Vertex 4 X-coordinate {m}
    -6.500000000000,         !- Vertex 4 Y-coordinate {m}
    14.250000000000;         !- Vertex 4 Z-coordinate {m}

BuildingSurface:Detailed,
    FBC8B9,                  !- Name
    Wall,                    !- Surface Type
    Exterior Wall North,     !- Construction Name
    CIRCUL02_P5,             !- Zone Name
    Outdoors,                !- Outside Boundary Condition
    ,                        !- Outside Boundary Condition Object
    SunExposed,              !- Sun Exposure
    WindExposed,             !- Wind Exposure
    ,                        !- View Factor to Ground
    4,                       !- Number of Vertices
    -24.800000000000,        !- Vertex 1 X-coordinate {m}
    -6.500000000000,         !- Vertex 1 Y-coordinate {m}
    14.250000000000,         !- Vertex 1 Z-coordinate {m}
    -24.800000000000,        !- Vertex 2 X-coordinate {m}
    -6.500000000000,         !- Vertex 2 Y-coordinate {m}
    11.400000000000,         !- Vertex 2 Z-coordinate {m}
    -22.600000000000,        !- Vertex 3 X-coordinate {m}
    -6.500000000000,         !- Vertex 3 Y-coordinate {m}
    11.400000000000,         !- Vertex 3 Z-coordinate {m}
    -22.600000000000,        !- Vertex 4 X-coordinate {m}
    -6.500000000000,         !- Vertex 4 Y-coordinate {m}
    14.250000000000;         !- Vertex 4 Z-coordinate {m}

BuildingSurface:Detailed,
    262FA2,                  !- Name
    Wall,                    !- Surface Type
    Interior Wall,           !- Construction Name
    CIRCUL02_P5,             !- Zone Name
    Surface,                 !- Outside Boundary Condition
    67C322,                  !- Outside Boundary Condition Object
    NoSun,                   !- Sun Exposure
    NoWind,                  !- Wind Exposure
    ,                        !- View Factor to Ground
    4,                       !- Number of Vertices
    -24.800000000000,        !- Vertex 1 X-coordinate {m}
    -0.600000000000,         !- Vertex 1 Y-coordinate {m}
    14.250000000000,         !- Vertex 1 Z-coordinate {m}
    -24.800000000000,        !- Vertex 2 X-coordinate {m}
    -0.600000000000,         !- Vertex 2 Y-coordinate {m}
    11.400000000000,         !- Vertex 2 Z-coordinate {m}
    -24.800000000000,        !- Vertex 3 X-coordinate {m}
    -6.500000000000,         !- Vertex 3 Y-coordinate {m}
    11.400000000000,         !- Vertex 3 Z-coordinate {m}
    -24.800000000000,        !- Vertex 4 X-coordinate {m}
    -6.500000000000,         !- Vertex 4 Y-coordinate {m}
    14.250000000000;         !- Vertex 4 Z-coordinate {m}

BuildingSurface:Detailed,
    282854,                  !- Name
    Wall,                    !- Surface Type
    Exterior Wall South,     !- Construction Name
    CIRCUL02_P5,             !- Zone Name
    Outdoors,                !- Outside Boundary Condition
    ,                        !- Outside Boundary Condition Object
    SunExposed,              !- Sun Exposure
    WindExposed,             !- Wind Exposure
    ,                        !- View Factor to Ground
    4,                       !- Number of Vertices
    -22.600000000000,        !- Vertex 1 X-coordinate {m}
    -0.600000000000,         !- Vertex 1 Y-coordinate {m}
    14.250000000000,         !- Vertex 1 Z-coordinate {m}
    -22.600000000000,        !- Vertex 2 X-coordinate {m}
    -0.600000000000,         !- Vertex 2 Y-coordinate {m}
    11.400000000000,         !- Vertex 2 Z-coordinate {m}
    -24.800000000000,        !- Vertex 3 X-coordinate {m}
    -0.600000000000,         !- Vertex 3 Y-coordinate {m}
    11.400000000000,         !- Vertex 3 Z-coordinate {m}
    -24.800000000000,        !- Vertex 4 X-coordinate {m}
    -0.600000000000,         !- Vertex 4 Y-coordinate {m}
    14.250000000000;         !- Vertex 4 Z-coordinate {m}

BuildingSurface:Detailed,
    D65A60,                  !- Name
    Wall,                    !- Surface Type
    Interior Wall,           !- Construction Name
    CIRCUL02_P5,             !- Zone Name
    Surface,                 !- Outside Boundary Condition
    4F8A1A,                  !- Outside Boundary Condition Object
    NoSun,                   !- Sun Exposure
    NoWind,                  !- Wind Exposure
    ,                        !- View Factor to Ground
    4,                       !- Number of Vertices
    -22.600000000000,        !- Vertex 1 X-coordinate {m}
    -6.500000000000,         !- Vertex 1 Y-coordinate {m}
    14.250000000000,         !- Vertex 1 Z-coordinate {m}
    -22.600000000000,        !- Vertex 2 X-coordinate {m}
    -6.500000000000,         !- Vertex 2 Y-coordinate {m}
    11.400000000000,         !- Vertex 2 Z-coordinate {m}
    -22.600000000000,        !- Vertex 3 X-coordinate {m}
    -0.600000000000,         !- Vertex 3 Y-coordinate {m}
    11.400000000000,         !- Vertex 3 Z-coordinate {m}
    -22.600000000000,        !- Vertex 4 X-coordinate {m}
    -0.600000000000,         !- Vertex 4 Y-coordinate {m}
    14.250000000000;         !- Vertex 4 Z-coordinate {m}

BuildingSurface:Detailed,
    229383,                  !- Name
    Floor,                   !- Surface Type
    Interior Floor,          !- Construction Name
    APTO03_P5,               !- Zone Name
    Surface,                 !- Outside Boundary Condition
    141918,                  !- Outside Boundary Condition Object
    NoSun,                   !- Sun Exposure
    NoWind,                  !- Wind Exposure
    ,                        !- View Factor to Ground
    4,                       !- Number of Vertices
    -22.600000000000,        !- Vertex 1 X-coordinate {m}
    -6.500000000000,         !- Vertex 1 Y-coordinate {m}
    11.400000000000,         !- Vertex 1 Z-coordinate {m}
    -22.600000000000,        !- Vertex 2 X-coordinate {m}
    0.000000000000,          !- Vertex 2 Y-coordinate {m}
    11.400000000000,         !- Vertex 2 Z-coordinate {m}
    -15.800000000000,        !- Vertex 3 X-coordinate {m}
    0.000000000000,          !- Vertex 3 Y-coordinate {m}
    11.400000000000,         !- Vertex 3 Z-coordinate {m}
    -15.800000000000,        !- Vertex 4 X-coordinate {m}
    -6.500000000000,         !- Vertex 4 Y-coordinate {m}
    11.400000000000;         !- Vertex 4 Z-coordinate {m}

BuildingSurface:Detailed,
    3C65F6,                  !- Name
    Roof,                    !- Surface Type
    Exterior Roof,           !- Construction Name
    APTO03_P5,               !- Zone Name
    Outdoors,                !- Outside Boundary Condition
    ,                        !- Outside Boundary Condition Object
    SunExposed,              !- Sun Exposure
    WindExposed,             !- Wind Exposure
    ,                        !- View Factor to Ground
    4,                       !- Number of Vertices
    -15.800000000000,        !- Vertex 1 X-coordinate {m}
    -6.500000000000,         !- Vertex 1 Y-coordinate {m}
    14.250000000000,         !- Vertex 1 Z-coordinate {m}
    -15.800000000000,        !- Vertex 2 X-coordinate {m}
    0.000000000000,          !- Vertex 2 Y-coordinate {m}
    14.250000000000,         !- Vertex 2 Z-coordinate {m}
    -22.600000000000,        !- Vertex 3 X-coordinate {m}
    0.000000000000,          !- Vertex 3 Y-coordinate {m}
    14.250000000000,         !- Vertex 3 Z-coordinate {m}
    -22.600000000000,        !- Vertex 4 X-coordinate {m}
    -6.500000000000,         !- Vertex 4 Y-coordinate {m}
    14.250000000000;         !- Vertex 4 Z-coordinate {m}

BuildingSurface:Detailed,
    C5ED0D,                  !- Name
    Wall,                    !- Surface Type
    Exterior Wall South,     !- Construction Name
    APTO03_P5,               !- Zone Name
    Outdoors,                !- Outside Boundary Condition
    ,                        !- Outside Boundary Condition Object
    SunExposed,              !- Sun Exposure
    WindExposed,             !- Wind Exposure
    ,                        !- View Factor to Ground
    4,                       !- Number of Vertices
    -15.800000000000,        !- Vertex 1 X-coordinate {m}
    0.000000000000,          !- Vertex 1 Y-coordinate {m}
    14.250000000000,         !- Vertex 1 Z-coordinate {m}
    -15.800000000000,        !- Vertex 2 X-coordinate {m}
    0.000000000000,          !- Vertex 2 Y-coordinate {m}
    11.400000000000,         !- Vertex 2 Z-coordinate {m}
    -22.600000000000,        !- Vertex 3 X-coordinate {m}
    0.000000000000,          !- Vertex 3 Y-coordinate {m}
    11.400000000000,         !- Vertex 3 Z-coordinate {m}
    -22.600000000000,        !- Vertex 4 X-coordinate {m}
    0.000000000000,          !- Vertex 4 Y-coordinate {m}
    14.250000000000;         !- Vertex 4 Z-coordinate {m}

BuildingSurface:Detailed,
    BB3F2D,                  !- Name
    Wall,                    !- Surface Type
    Interior Wall,           !- Construction Name
    APTO03_P5,               !- Zone Name
    Surface,                 !- Outside Boundary Condition
    61BD18,                  !- Outside Boundary Condition Object
    NoSun,                   !- Sun Exposure
    NoWind,                  !- Wind Exposure
    ,                        !- View Factor to Ground
    4,                       !- Number of Vertices
    -15.800000000000,        !- Vertex 1 X-coordinate {m}
    -6.500000000000,         !- Vertex 1 Y-coordinate {m}
    14.250000000000,         !- Vertex 1 Z-coordinate {m}
    -15.800000000000,        !- Vertex 2 X-coordinate {m}
    -6.500000000000,         !- Vertex 2 Y-coordinate {m}
    11.400000000000,         !- Vertex 2 Z-coordinate {m}
    -15.800000000000,        !- Vertex 3 X-coordinate {m}
    0.000000000000,          !- Vertex 3 Y-coordinate {m}
    11.400000000000,         !- Vertex 3 Z-coordinate {m}
    -15.800000000000,        !- Vertex 4 X-coordinate {m}
    0.000000000000,          !- Vertex 4 Y-coordinate {m}
    14.250000000000;         !- Vertex 4 Z-coordinate {m}

BuildingSurface:Detailed,
    691CFA,                  !- Name
    Wall,                    !- Surface Type
    Exterior Wall North,     !- Construction Name
    APTO03_P5,               !- Zone Name
    Outdoors,                !- Outside Boundary Condition
    ,                        !- Outside Boundary Condition Object
    SunExposed,              !- Sun Exposure
    WindExposed,             !- Wind Exposure
    ,                        !- View Factor to Ground
    4,                       !- Number of Vertices
    -22.600000000000,        !- Vertex 1 X-coordinate {m}
    -6.500000000000,         !- Vertex 1 Y-coordinate {m}
    14.250000000000,         !- Vertex 1 Z-coordinate {m}
    -22.600000000000,        !- Vertex 2 X-coordinate {m}
    -6.500000000000,         !- Vertex 2 Y-coordinate {m}
    11.400000000000,         !- Vertex 2 Z-coordinate {m}
    -15.800000000000,        !- Vertex 3 X-coordinate {m}
    -6.500000000000,         !- Vertex 3 Y-coordinate {m}
    11.400000000000,         !- Vertex 3 Z-coordinate {m}
    -15.800000000000,        !- Vertex 4 X-coordinate {m}
    -6.500000000000,         !- Vertex 4 Y-coordinate {m}
    14.250000000000;         !- Vertex 4 Z-coordinate {m}

BuildingSurface:Detailed,
    B46D2E,                  !- Name
    Wall,                    !- Surface Type
    Exterior Wall East,      !- Construction Name
    APTO03_P5,               !- Zone Name
    Outdoors,                !- Outside Boundary Condition
    ,                        !- Outside Boundary Condition Object
    SunExposed,              !- Sun Exposure
    WindExposed,             !- Wind Exposure
    ,                        !- View Factor to Ground
    4,                       !- Number of Vertices
    -22.600000000000,        !- Vertex 1 X-coordinate {m}
    0.000000000000,          !- Vertex 1 Y-coordinate {m}
    14.250000000000,         !- Vertex 1 Z-coordinate {m}
    -22.600000000000,        !- Vertex 2 X-coordinate {m}
    0.000000000000,          !- Vertex 2 Y-coordinate {m}
    11.400000000000,         !- Vertex 2 Z-coordinate {m}
    -22.600000000000,        !- Vertex 3 X-coordinate {m}
    -0.600000000000,         !- Vertex 3 Y-coordinate {m}
    11.400000000000,         !- Vertex 3 Z-coordinate {m}
    -22.600000000000,        !- Vertex 4 X-coordinate {m}
    -0.600000000000,         !- Vertex 4 Y-coordinate {m}
    14.250000000000;         !- Vertex 4 Z-coordinate {m}

BuildingSurface:Detailed,
    928BF1,                  !- Name
    Floor,                   !- Surface Type
    Interior Floor,          !- Construction Name
    APTO04_P5,               !- Zone Name
    Surface,                 !- Outside Boundary Condition
    291971,                  !- Outside Boundary Condition Object
    NoSun,                   !- Sun Exposure
    NoWind,                  !- Wind Exposure
    ,                        !- View Factor to Ground
    4,                       !- Number of Vertices
    -31.600000000000,        !- Vertex 1 X-coordinate {m}
    -6.500000000000,         !- Vertex 1 Y-coordinate {m}
    11.400000000000,         !- Vertex 1 Z-coordinate {m}
    -31.600000000000,        !- Vertex 2 X-coordinate {m}
    0.000000000000,          !- Vertex 2 Y-coordinate {m}
    11.400000000000,         !- Vertex 2 Z-coordinate {m}
    -24.800000000000,        !- Vertex 3 X-coordinate {m}
    0.000000000000,          !- Vertex 3 Y-coordinate {m}
    11.400000000000,         !- Vertex 3 Z-coordinate {m}
    -24.800000000000,        !- Vertex 4 X-coordinate {m}
    -6.500000000000,         !- Vertex 4 Y-coordinate {m}
    11.400000000000;         !- Vertex 4 Z-coordinate {m}

BuildingSurface:Detailed,
    D54FA7,                  !- Name
    Roof,                    !- Surface Type
    Exterior Roof,           !- Construction Name
    APTO04_P5,               !- Zone Name
    Outdoors,                !- Outside Boundary Condition
    ,                        !- Outside Boundary Condition Object
    SunExposed,              !- Sun Exposure
    WindExposed,             !- Wind Exposure
    ,                        !- View Factor to Ground
    4,                       !- Number of Vertices
    -24.800000000000,        !- Vertex 1 X-coordinate {m}
    -6.500000000000,         !- Vertex 1 Y-coordinate {m}
    14.250000000000,         !- Vertex 1 Z-coordinate {m}
    -24.800000000000,        !- Vertex 2 X-coordinate {m}
    0.000000000000,          !- Vertex 2 Y-coordinate {m}
    14.250000000000,         !- Vertex 2 Z-coordinate {m}
    -31.600000000000,        !- Vertex 3 X-coordinate {m}
    0.000000000000,          !- Vertex 3 Y-coordinate {m}
    14.250000000000,         !- Vertex 3 Z-coordinate {m}
    -31.600000000000,        !- Vertex 4 X-coordinate {m}
    -6.500000000000,         !- Vertex 4 Y-coordinate {m}
    14.250000000000;         !- Vertex 4 Z-coordinate {m}

BuildingSurface:Detailed,
    409EA8,                  !- Name
    Wall,                    !- Surface Type
    Exterior Wall North,     !- Construction Name
    APTO04_P5,               !- Zone Name
    Outdoors,                !- Outside Boundary Condition
    ,                        !- Outside Boundary Condition Object
    SunExposed,              !- Sun Exposure
    WindExposed,             !- Wind Exposure
    ,                        !- View Factor to Ground
    4,                       !- Number of Vertices
    -31.600000000000,        !- Vertex 1 X-coordinate {m}
    -6.500000000000,         !- Vertex 1 Y-coordinate {m}
    14.250000000000,         !- Vertex 1 Z-coordinate {m}
    -31.600000000000,        !- Vertex 2 X-coordinate {m}
    -6.500000000000,         !- Vertex 2 Y-coordinate {m}
    11.400000000000,         !- Vertex 2 Z-coordinate {m}
    -24.800000000000,        !- Vertex 3 X-coordinate {m}
    -6.500000000000,         !- Vertex 3 Y-coordinate {m}
    11.400000000000,         !- Vertex 3 Z-coordinate {m}
    -24.800000000000,        !- Vertex 4 X-coordinate {m}
    -6.500000000000,         !- Vertex 4 Y-coordinate {m}
    14.250000000000;         !- Vertex 4 Z-coordinate {m}

BuildingSurface:Detailed,
    67C322,                  !- Name
    Wall,                    !- Surface Type
    Interior Wall,           !- Construction Name
    APTO04_P5,               !- Zone Name
    Surface,                 !- Outside Boundary Condition
    262FA2,                  !- Outside Boundary Condition Object
    NoSun,                   !- Sun Exposure
    NoWind,                  !- Wind Exposure
    ,                        !- View Factor to Ground
    4,                       !- Number of Vertices
    -24.800000000000,        !- Vertex 1 X-coordinate {m}
    -6.500000000000,         !- Vertex 1 Y-coordinate {m}
    14.250000000000,         !- Vertex 1 Z-coordinate {m}
    -24.800000000000,        !- Vertex 2 X-coordinate {m}
    -6.500000000000,         !- Vertex 2 Y-coordinate {m}
    11.400000000000,         !- Vertex 2 Z-coordinate {m}
    -24.800000000000,        !- Vertex 3 X-coordinate {m}
    -0.600000000000,         !- Vertex 3 Y-coordinate {m}
    11.400000000000,         !- Vertex 3 Z-coordinate {m}
    -24.800000000000,        !- Vertex 4 X-coordinate {m}
    -0.600000000000,         !- Vertex 4 Y-coordinate {m}
    14.250000000000;         !- Vertex 4 Z-coordinate {m}

BuildingSurface:Detailed,
    703BD7,                  !- Name
    Wall,                    !- Surface Type
    Exterior Wall South,     !- Construction Name
    APTO04_P5,               !- Zone Name
    Outdoors,                !- Outside Boundary Condition
    ,                        !- Outside Boundary Condition Object
    SunExposed,              !- Sun Exposure
    WindExposed,             !- Wind Exposure
    ,                        !- View Factor to Ground
    4,                       !- Number of Vertices
    -24.800000000000,        !- Vertex 1 X-coordinate {m}
    0.000000000000,          !- Vertex 1 Y-coordinate {m}
    14.250000000000,         !- Vertex 1 Z-coordinate {m}
    -24.800000000000,        !- Vertex 2 X-coordinate {m}
    0.000000000000,          !- Vertex 2 Y-coordinate {m}
    11.400000000000,         !- Vertex 2 Z-coordinate {m}
    -31.600000000000,        !- Vertex 3 X-coordinate {m}
    0.000000000000,          !- Vertex 3 Y-coordinate {m}
    11.400000000000,         !- Vertex 3 Z-coordinate {m}
    -31.600000000000,        !- Vertex 4 X-coordinate {m}
    0.000000000000,          !- Vertex 4 Y-coordinate {m}
    14.250000000000;         !- Vertex 4 Z-coordinate {m}

BuildingSurface:Detailed,
    E7F0EB,                  !- Name
    Wall,                    !- Surface Type
    Exterior Wall East,      !- Construction Name
    APTO04_P5,               !- Zone Name
    Outdoors,                !- Outside Boundary Condition
    ,                        !- Outside Boundary Condition Object
    SunExposed,              !- Sun Exposure
    WindExposed,             !- Wind Exposure
    ,                        !- View Factor to Ground
    4,                       !- Number of Vertices
    -31.600000000000,        !- Vertex 1 X-coordinate {m}
    0.000000000000,          !- Vertex 1 Y-coordinate {m}
    14.250000000000,         !- Vertex 1 Z-coordinate {m}
    -31.600000000000,        !- Vertex 2 X-coordinate {m}
    0.000000000000,          !- Vertex 2 Y-coordinate {m}
    11.400000000000,         !- Vertex 2 Z-coordinate {m}
    -31.600000000000,        !- Vertex 3 X-coordinate {m}
    -6.500000000000,         !- Vertex 3 Y-coordinate {m}
    11.400000000000,         !- Vertex 3 Z-coordinate {m}
    -31.600000000000,        !- Vertex 4 X-coordinate {m}
    -6.500000000000,         !- Vertex 4 Y-coordinate {m}
    14.250000000000;         !- Vertex 4 Z-coordinate {m}

BuildingSurface:Detailed,
    780785,                  !- Name
    Wall,                    !- Surface Type
    Interior Wall,           !- Construction Name
    APTO01_P1,               !- Zone Name
    Surface,                 !- Outside Boundary Condition
    5243FD,                  !- Outside Boundary Condition Object
    NoSun,                   !- Sun Exposure
    NoWind,                  !- Wind Exposure
    ,                        !- View Factor to Ground
    4,                       !- Number of Vertices
    -6.800000000000,         !- Vertex 1 X-coordinate {m}
    -0.600000000000,         !- Vertex 1 Y-coordinate {m}
    2.850000000000,          !- Vertex 1 Z-coordinate {m}
    -6.800000000000,         !- Vertex 2 X-coordinate {m}
    -0.600000000000,         !- Vertex 2 Y-coordinate {m}
    0.000000000000,          !- Vertex 2 Z-coordinate {m}
    -6.800000000000,         !- Vertex 3 X-coordinate {m}
    -6.500000000000,         !- Vertex 3 Y-coordinate {m}
    0.000000000000,          !- Vertex 3 Z-coordinate {m}
    -6.800000000000,         !- Vertex 4 X-coordinate {m}
    -6.500000000000,         !- Vertex 4 Y-coordinate {m}
    2.850000000000;          !- Vertex 4 Z-coordinate {m}

BuildingSurface:Detailed,
    F4B706,                  !- Name
    Wall,                    !- Surface Type
    Interior Wall,           !- Construction Name
    APTO01_P2,               !- Zone Name
    Surface,                 !- Outside Boundary Condition
    B182D2,                  !- Outside Boundary Condition Object
    NoSun,                   !- Sun Exposure
    NoWind,                  !- Wind Exposure
    ,                        !- View Factor to Ground
    4,                       !- Number of Vertices
    -6.800000000000,         !- Vertex 1 X-coordinate {m}
    -0.600000000000,         !- Vertex 1 Y-coordinate {m}
    5.700000000000,          !- Vertex 1 Z-coordinate {m}
    -6.800000000000,         !- Vertex 2 X-coordinate {m}
    -0.600000000000,         !- Vertex 2 Y-coordinate {m}
    2.850000000000,          !- Vertex 2 Z-coordinate {m}
    -6.800000000000,         !- Vertex 3 X-coordinate {m}
    -6.500000000000,         !- Vertex 3 Y-coordinate {m}
    2.850000000000,          !- Vertex 3 Z-coordinate {m}
    -6.800000000000,         !- Vertex 4 X-coordinate {m}
    -6.500000000000,         !- Vertex 4 Y-coordinate {m}
    5.700000000000;          !- Vertex 4 Z-coordinate {m}

BuildingSurface:Detailed,
    A8EC42,                  !- Name
    Wall,                    !- Surface Type
    Interior Wall,           !- Construction Name
    APTO01_P3,               !- Zone Name
    Surface,                 !- Outside Boundary Condition
    C13B12,                  !- Outside Boundary Condition Object
    NoSun,                   !- Sun Exposure
    NoWind,                  !- Wind Exposure
    ,                        !- View Factor to Ground
    4,                       !- Number of Vertices
    -6.800000000000,         !- Vertex 1 X-coordinate {m}
    -0.600000000000,         !- Vertex 1 Y-coordinate {m}
    8.550000000000,          !- Vertex 1 Z-coordinate {m}
    -6.800000000000,         !- Vertex 2 X-coordinate {m}
    -0.600000000000,         !- Vertex 2 Y-coordinate {m}
    5.700000000000,          !- Vertex 2 Z-coordinate {m}
    -6.800000000000,         !- Vertex 3 X-coordinate {m}
    -6.500000000000,         !- Vertex 3 Y-coordinate {m}
    5.700000000000,          !- Vertex 3 Z-coordinate {m}
    -6.800000000000,         !- Vertex 4 X-coordinate {m}
    -6.500000000000,         !- Vertex 4 Y-coordinate {m}
    8.550000000000;          !- Vertex 4 Z-coordinate {m}

BuildingSurface:Detailed,
    EC5534,                  !- Name
    Wall,                    !- Surface Type
    Interior Wall,           !- Construction Name
    APTO01_P4,               !- Zone Name
    Surface,                 !- Outside Boundary Condition
    E161B1,                  !- Outside Boundary Condition Object
    NoSun,                   !- Sun Exposure
    NoWind,                  !- Wind Exposure
    ,                        !- View Factor to Ground
    4,                       !- Number of Vertices
    -6.800000000000,         !- Vertex 1 X-coordinate {m}
    -0.600000000000,         !- Vertex 1 Y-coordinate {m}
    11.400000000000,         !- Vertex 1 Z-coordinate {m}
    -6.800000000000,         !- Vertex 2 X-coordinate {m}
    -0.600000000000,         !- Vertex 2 Y-coordinate {m}
    8.550000000000,          !- Vertex 2 Z-coordinate {m}
    -6.800000000000,         !- Vertex 3 X-coordinate {m}
    -6.500000000000,         !- Vertex 3 Y-coordinate {m}
    8.550000000000,          !- Vertex 3 Z-coordinate {m}
    -6.800000000000,         !- Vertex 4 X-coordinate {m}
    -6.500000000000,         !- Vertex 4 Y-coordinate {m}
    11.400000000000;         !- Vertex 4 Z-coordinate {m}

BuildingSurface:Detailed,
    622A68,                  !- Name
    Wall,                    !- Surface Type
    Interior Wall,           !- Construction Name
    APTO01_P5,               !- Zone Name
    Surface,                 !- Outside Boundary Condition
    3570AB,                  !- Outside Boundary Condition Object
    NoSun,                   !- Sun Exposure
    NoWind,                  !- Wind Exposure
    ,                        !- View Factor to Ground
    4,                       !- Number of Vertices
    -6.800000000000,         !- Vertex 1 X-coordinate {m}
    -0.600000000000,         !- Vertex 1 Y-coordinate {m}
    14.250000000000,         !- Vertex 1 Z-coordinate {m}
    -6.800000000000,         !- Vertex 2 X-coordinate {m}
    -0.600000000000,         !- Vertex 2 Y-coordinate {m}
    11.400000000000,         !- Vertex 2 Z-coordinate {m}
    -6.800000000000,         !- Vertex 3 X-coordinate {m}
    -6.500000000000,         !- Vertex 3 Y-coordinate {m}
    11.400000000000,         !- Vertex 3 Z-coordinate {m}
    -6.800000000000,         !- Vertex 4 X-coordinate {m}
    -6.500000000000,         !- Vertex 4 Y-coordinate {m}
    14.250000000000;         !- Vertex 4 Z-coordinate {m}

BuildingSurface:Detailed,
    AFF1E9,                  !- Name
    Wall,                    !- Surface Type
    Exterior Wall West,      !- Construction Name
    APTO02_P5,               !- Zone Name
    Outdoors,                !- Outside Boundary Condition
    ,                        !- Outside Boundary Condition Object
    SunExposed,              !- Sun Exposure
    WindExposed,             !- Wind Exposure
    ,                        !- View Factor to Ground
    4,                       !- Number of Vertices
    -9.000000000000,         !- Vertex 1 X-coordinate {m}
    -0.600000000000,         !- Vertex 1 Y-coordinate {m}
    14.250000000000,         !- Vertex 1 Z-coordinate {m}
    -9.000000000000,         !- Vertex 2 X-coordinate {m}
    -0.600000000000,         !- Vertex 2 Y-coordinate {m}
    11.400000000000,         !- Vertex 2 Z-coordinate {m}
    -9.000000000000,         !- Vertex 3 X-coordinate {m}
    0.000000000000,          !- Vertex 3 Y-coordinate {m}
    11.400000000000,         !- Vertex 3 Z-coordinate {m}
    -9.000000000000,         !- Vertex 4 X-coordinate {m}
    0.000000000000,          !- Vertex 4 Y-coordinate {m}
    14.250000000000;         !- Vertex 4 Z-coordinate {m}

BuildingSurface:Detailed,
    949D5B,                  !- Name
    Wall,                    !- Surface Type
    Exterior Wall West,      !- Construction Name
    APTO02_P4,               !- Zone Name
    Outdoors,                !- Outside Boundary Condition
    ,                        !- Outside Boundary Condition Object
    SunExposed,              !- Sun Exposure
    WindExposed,             !- Wind Exposure
    ,                        !- View Factor to Ground
    4,                       !- Number of Vertices
    -9.000000000000,         !- Vertex 1 X-coordinate {m}
    -0.600000000000,         !- Vertex 1 Y-coordinate {m}
    11.400000000000,         !- Vertex 1 Z-coordinate {m}
    -9.000000000000,         !- Vertex 2 X-coordinate {m}
    -0.600000000000,         !- Vertex 2 Y-coordinate {m}
    8.550000000000,          !- Vertex 2 Z-coordinate {m}
    -9.000000000000,         !- Vertex 3 X-coordinate {m}
    0.000000000000,          !- Vertex 3 Y-coordinate {m}
    8.550000000000,          !- Vertex 3 Z-coordinate {m}
    -9.000000000000,         !- Vertex 4 X-coordinate {m}
    0.000000000000,          !- Vertex 4 Y-coordinate {m}
    11.400000000000;         !- Vertex 4 Z-coordinate {m}

BuildingSurface:Detailed,
    6A5172,                  !- Name
    Wall,                    !- Surface Type
    Exterior Wall West,      !- Construction Name
    APTO02_P3,               !- Zone Name
    Outdoors,                !- Outside Boundary Condition
    ,                        !- Outside Boundary Condition Object
    SunExposed,              !- Sun Exposure
    WindExposed,             !- Wind Exposure
    ,                        !- View Factor to Ground
    4,                       !- Number of Vertices
    -9.000000000000,         !- Vertex 1 X-coordinate {m}
    -0.600000000000,         !- Vertex 1 Y-coordinate {m}
    8.550000000000,          !- Vertex 1 Z-coordinate {m}
    -9.000000000000,         !- Vertex 2 X-coordinate {m}
    -0.600000000000,         !- Vertex 2 Y-coordinate {m}
    5.700000000000,          !- Vertex 2 Z-coordinate {m}
    -9.000000000000,         !- Vertex 3 X-coordinate {m}
    0.000000000000,          !- Vertex 3 Y-coordinate {m}
    5.700000000000,          !- Vertex 3 Z-coordinate {m}
    -9.000000000000,         !- Vertex 4 X-coordinate {m}
    0.000000000000,          !- Vertex 4 Y-coordinate {m}
    8.550000000000;          !- Vertex 4 Z-coordinate {m}

BuildingSurface:Detailed,
    E9AE74,                  !- Name
    Wall,                    !- Surface Type
    Exterior Wall West,      !- Construction Name
    APTO02_P2,               !- Zone Name
    Outdoors,                !- Outside Boundary Condition
    ,                        !- Outside Boundary Condition Object
    SunExposed,              !- Sun Exposure
    WindExposed,             !- Wind Exposure
    ,                        !- View Factor to Ground
    4,                       !- Number of Vertices
    -9.000000000000,         !- Vertex 1 X-coordinate {m}
    -0.600000000000,         !- Vertex 1 Y-coordinate {m}
    5.700000000000,          !- Vertex 1 Z-coordinate {m}
    -9.000000000000,         !- Vertex 2 X-coordinate {m}
    -0.600000000000,         !- Vertex 2 Y-coordinate {m}
    2.850000000000,          !- Vertex 2 Z-coordinate {m}
    -9.000000000000,         !- Vertex 3 X-coordinate {m}
    0.000000000000,          !- Vertex 3 Y-coordinate {m}
    2.850000000000,          !- Vertex 3 Z-coordinate {m}
    -9.000000000000,         !- Vertex 4 X-coordinate {m}
    0.000000000000,          !- Vertex 4 Y-coordinate {m}
    5.700000000000;          !- Vertex 4 Z-coordinate {m}

BuildingSurface:Detailed,
    6068A4,                  !- Name
    Wall,                    !- Surface Type
    Exterior Wall West,      !- Construction Name
    APTO02_P1,               !- Zone Name
    Outdoors,                !- Outside Boundary Condition
    ,                        !- Outside Boundary Condition Object
    SunExposed,              !- Sun Exposure
    WindExposed,             !- Wind Exposure
    ,                        !- View Factor to Ground
    4,                       !- Number of Vertices
    -9.000000000000,         !- Vertex 1 X-coordinate {m}
    -0.600000000000,         !- Vertex 1 Y-coordinate {m}
    2.850000000000,          !- Vertex 1 Z-coordinate {m}
    -9.000000000000,         !- Vertex 2 X-coordinate {m}
    -0.600000000000,         !- Vertex 2 Y-coordinate {m}
    0.000000000000,          !- Vertex 2 Z-coordinate {m}
    -9.000000000000,         !- Vertex 3 X-coordinate {m}
    0.000000000000,          !- Vertex 3 Y-coordinate {m}
    0.000000000000,          !- Vertex 3 Z-coordinate {m}
    -9.000000000000,         !- Vertex 4 X-coordinate {m}
    0.000000000000,          !- Vertex 4 Y-coordinate {m}
    2.850000000000;          !- Vertex 4 Z-coordinate {m}

BuildingSurface:Detailed,
    128102,                  !- Name
    Wall,                    !- Surface Type
    Interior Wall,           !- Construction Name
    APTO03_P1,               !- Zone Name
    Surface,                 !- Outside Boundary Condition
    148CF4,                  !- Outside Boundary Condition Object
    NoSun,                   !- Sun Exposure
    NoWind,                  !- Wind Exposure
    ,                        !- View Factor to Ground
    4,                       !- Number of Vertices
    -22.600000000000,        !- Vertex 1 X-coordinate {m}
    -0.600000000000,         !- Vertex 1 Y-coordinate {m}
    2.850000000000,          !- Vertex 1 Z-coordinate {m}
    -22.600000000000,        !- Vertex 2 X-coordinate {m}
    -0.600000000000,         !- Vertex 2 Y-coordinate {m}
    0.000000000000,          !- Vertex 2 Z-coordinate {m}
    -22.600000000000,        !- Vertex 3 X-coordinate {m}
    -6.500000000000,         !- Vertex 3 Y-coordinate {m}
    0.000000000000,          !- Vertex 3 Z-coordinate {m}
    -22.600000000000,        !- Vertex 4 X-coordinate {m}
    -6.500000000000,         !- Vertex 4 Y-coordinate {m}
    2.850000000000;          !- Vertex 4 Z-coordinate {m}

BuildingSurface:Detailed,
    BF7A06,                  !- Name
    Wall,                    !- Surface Type
    Interior Wall,           !- Construction Name
    APTO03_P2,               !- Zone Name
    Surface,                 !- Outside Boundary Condition
    F0F5CC,                  !- Outside Boundary Condition Object
    NoSun,                   !- Sun Exposure
    NoWind,                  !- Wind Exposure
    ,                        !- View Factor to Ground
    4,                       !- Number of Vertices
    -22.600000000000,        !- Vertex 1 X-coordinate {m}
    -0.600000000000,         !- Vertex 1 Y-coordinate {m}
    5.700000000000,          !- Vertex 1 Z-coordinate {m}
    -22.600000000000,        !- Vertex 2 X-coordinate {m}
    -0.600000000000,         !- Vertex 2 Y-coordinate {m}
    2.850000000000,          !- Vertex 2 Z-coordinate {m}
    -22.600000000000,        !- Vertex 3 X-coordinate {m}
    -6.500000000000,         !- Vertex 3 Y-coordinate {m}
    2.850000000000,          !- Vertex 3 Z-coordinate {m}
    -22.600000000000,        !- Vertex 4 X-coordinate {m}
    -6.500000000000,         !- Vertex 4 Y-coordinate {m}
    5.700000000000;          !- Vertex 4 Z-coordinate {m}

BuildingSurface:Detailed,
    509AF8,                  !- Name
    Wall,                    !- Surface Type
    Interior Wall,           !- Construction Name
    APTO03_P3,               !- Zone Name
    Surface,                 !- Outside Boundary Condition
    98A2CB,                  !- Outside Boundary Condition Object
    NoSun,                   !- Sun Exposure
    NoWind,                  !- Wind Exposure
    ,                        !- View Factor to Ground
    4,                       !- Number of Vertices
    -22.600000000000,        !- Vertex 1 X-coordinate {m}
    -0.600000000000,         !- Vertex 1 Y-coordinate {m}
    8.550000000000,          !- Vertex 1 Z-coordinate {m}
    -22.600000000000,        !- Vertex 2 X-coordinate {m}
    -0.600000000000,         !- Vertex 2 Y-coordinate {m}
    5.700000000000,          !- Vertex 2 Z-coordinate {m}
    -22.600000000000,        !- Vertex 3 X-coordinate {m}
    -6.500000000000,         !- Vertex 3 Y-coordinate {m}
    5.700000000000,          !- Vertex 3 Z-coordinate {m}
    -22.600000000000,        !- Vertex 4 X-coordinate {m}
    -6.500000000000,         !- Vertex 4 Y-coordinate {m}
    8.550000000000;          !- Vertex 4 Z-coordinate {m}

BuildingSurface:Detailed,
    AE9DFE,                  !- Name
    Wall,                    !- Surface Type
    Interior Wall,           !- Construction Name
    APTO03_P4,               !- Zone Name
    Surface,                 !- Outside Boundary Condition
    F6C43B,                  !- Outside Boundary Condition Object
    NoSun,                   !- Sun Exposure
    NoWind,                  !- Wind Exposure
    ,                        !- View Factor to Ground
    4,                       !- Number of Vertices
    -22.600000000000,        !- Vertex 1 X-coordinate {m}
    -0.600000000000,         !- Vertex 1 Y-coordinate {m}
    11.400000000000,         !- Vertex 1 Z-coordinate {m}
    -22.600000000000,        !- Vertex 2 X-coordinate {m}
    -0.600000000000,         !- Vertex 2 Y-coordinate {m}
    8.550000000000,          !- Vertex 2 Z-coordinate {m}
    -22.600000000000,        !- Vertex 3 X-coordinate {m}
    -6.500000000000,         !- Vertex 3 Y-coordinate {m}
    8.550000000000,          !- Vertex 3 Z-coordinate {m}
    -22.600000000000,        !- Vertex 4 X-coordinate {m}
    -6.500000000000,         !- Vertex 4 Y-coordinate {m}
    11.400000000000;         !- Vertex 4 Z-coordinate {m}

BuildingSurface:Detailed,
    4F8A1A,                  !- Name
    Wall,                    !- Surface Type
    Interior Wall,           !- Construction Name
    APTO03_P5,               !- Zone Name
    Surface,                 !- Outside Boundary Condition
    D65A60,                  !- Outside Boundary Condition Object
    NoSun,                   !- Sun Exposure
    NoWind,                  !- Wind Exposure
    ,                        !- View Factor to Ground
    4,                       !- Number of Vertices
    -22.600000000000,        !- Vertex 1 X-coordinate {m}
    -0.600000000000,         !- Vertex 1 Y-coordinate {m}
    14.250000000000,         !- Vertex 1 Z-coordinate {m}
    -22.600000000000,        !- Vertex 2 X-coordinate {m}
    -0.600000000000,         !- Vertex 2 Y-coordinate {m}
    11.400000000000,         !- Vertex 2 Z-coordinate {m}
    -22.600000000000,        !- Vertex 3 X-coordinate {m}
    -6.500000000000,         !- Vertex 3 Y-coordinate {m}
    11.400000000000,         !- Vertex 3 Z-coordinate {m}
    -22.600000000000,        !- Vertex 4 X-coordinate {m}
    -6.500000000000,         !- Vertex 4 Y-coordinate {m}
    14.250000000000;         !- Vertex 4 Z-coordinate {m}

BuildingSurface:Detailed,
    CAF30B,                  !- Name
    Wall,                    !- Surface Type
    Exterior Wall West,      !- Construction Name
    APTO04_P5,               !- Zone Name
    Outdoors,                !- Outside Boundary Condition
    ,                        !- Outside Boundary Condition Object
    SunExposed,              !- Sun Exposure
    WindExposed,             !- Wind Exposure
    ,                        !- View Factor to Ground
    4,                       !- Number of Vertices
    -24.800000000000,        !- Vertex 1 X-coordinate {m}
    -0.600000000000,         !- Vertex 1 Y-coordinate {m}
    14.250000000000,         !- Vertex 1 Z-coordinate {m}
    -24.800000000000,        !- Vertex 2 X-coordinate {m}
    -0.600000000000,         !- Vertex 2 Y-coordinate {m}
    11.400000000000,         !- Vertex 2 Z-coordinate {m}
    -24.800000000000,        !- Vertex 3 X-coordinate {m}
    0.000000000000,          !- Vertex 3 Y-coordinate {m}
    11.400000000000,         !- Vertex 3 Z-coordinate {m}
    -24.800000000000,        !- Vertex 4 X-coordinate {m}
    0.000000000000,          !- Vertex 4 Y-coordinate {m}
    14.250000000000;         !- Vertex 4 Z-coordinate {m}

BuildingSurface:Detailed,
    9ABEC4,                  !- Name
    Wall,                    !- Surface Type
    Exterior Wall West,      !- Construction Name
    APTO04_P4,               !- Zone Name
    Outdoors,                !- Outside Boundary Condition
    ,                        !- Outside Boundary Condition Object
    SunExposed,              !- Sun Exposure
    WindExposed,             !- Wind Exposure
    ,                        !- View Factor to Ground
    4,                       !- Number of Vertices
    -24.800000000000,        !- Vertex 1 X-coordinate {m}
    -0.600000000000,         !- Vertex 1 Y-coordinate {m}
    11.400000000000,         !- Vertex 1 Z-coordinate {m}
    -24.800000000000,        !- Vertex 2 X-coordinate {m}
    -0.600000000000,         !- Vertex 2 Y-coordinate {m}
    8.550000000000,          !- Vertex 2 Z-coordinate {m}
    -24.800000000000,        !- Vertex 3 X-coordinate {m}
    0.000000000000,          !- Vertex 3 Y-coordinate {m}
    8.550000000000,          !- Vertex 3 Z-coordinate {m}
    -24.800000000000,        !- Vertex 4 X-coordinate {m}
    0.000000000000,          !- Vertex 4 Y-coordinate {m}
    11.400000000000;         !- Vertex 4 Z-coordinate {m}

BuildingSurface:Detailed,
    C1AE8C,                  !- Name
    Wall,                    !- Surface Type
    Exterior Wall West,      !- Construction Name
    APTO04_P3,               !- Zone Name
    Outdoors,                !- Outside Boundary Condition
    ,                        !- Outside Boundary Condition Object
    SunExposed,              !- Sun Exposure
    WindExposed,             !- Wind Exposure
    ,                        !- View Factor to Ground
    4,                       !- Number of Vertices
    -24.800000000000,        !- Vertex 1 X-coordinate {m}
    -0.600000000000,         !- Vertex 1 Y-coordinate {m}
    8.550000000000,          !- Vertex 1 Z-coordinate {m}
    -24.800000000000,        !- Vertex 2 X-coordinate {m}
    -0.600000000000,         !- Vertex 2 Y-coordinate {m}
    5.700000000000,          !- Vertex 2 Z-coordinate {m}
    -24.800000000000,        !- Vertex 3 X-coordinate {m}
    0.000000000000,          !- Vertex 3 Y-coordinate {m}
    5.700000000000,          !- Vertex 3 Z-coordinate {m}
    -24.800000000000,        !- Vertex 4 X-coordinate {m}
    0.000000000000,          !- Vertex 4 Y-coordinate {m}
    8.550000000000;          !- Vertex 4 Z-coordinate {m}

BuildingSurface:Detailed,
    EEC0EC,                  !- Name
    Wall,                    !- Surface Type
    Exterior Wall West,      !- Construction Name
    APTO04_P2,               !- Zone Name
    Outdoors,                !- Outside Boundary Condition
    ,                        !- Outside Boundary Condition Object
    SunExposed,              !- Sun Exposure
    WindExposed,             !- Wind Exposure
    ,                        !- View Factor to Ground
    4,                       !- Number of Vertices
    -24.800000000000,        !- Vertex 1 X-coordinate {m}
    -0.600000000000,         !- Vertex 1 Y-coordinate {m}
    5.700000000000,          !- Vertex 1 Z-coordinate {m}
    -24.800000000000,        !- Vertex 2 X-coordinate {m}
    -0.600000000000,         !- Vertex 2 Y-coordinate {m}
    2.850000000000,          !- Vertex 2 Z-coordinate {m}
    -24.800000000000,        !- Vertex 3 X-coordinate {m}
    0.000000000000,          !- Vertex 3 Y-coordinate {m}
    2.850000000000,          !- Vertex 3 Z-coordinate {m}
    -24.800000000000,        !- Vertex 4 X-coordinate {m}
    0.000000000000,          !- Vertex 4 Y-coordinate {m}
    5.700000000000;          !- Vertex 4 Z-coordinate {m}

BuildingSurface:Detailed,
    D525CE,                  !- Name
    Wall,                    !- Surface Type
    Exterior Wall West,      !- Construction Name
    APTO04_P1,               !- Zone Name
    Outdoors,                !- Outside Boundary Condition
    ,                        !- Outside Boundary Condition Object
    SunExposed,              !- Sun Exposure
    WindExposed,             !- Wind Exposure
    ,                        !- View Factor to Ground
    4,                       !- Number of Vertices
    -24.800000000000,        !- Vertex 1 X-coordinate {m}
    -0.600000000000,         !- Vertex 1 Y-coordinate {m}
    2.850000000000,          !- Vertex 1 Z-coordinate {m}
    -24.800000000000,        !- Vertex 2 X-coordinate {m}
    -0.600000000000,         !- Vertex 2 Y-coordinate {m}
    0.000000000000,          !- Vertex 2 Z-coordinate {m}
    -24.800000000000,        !- Vertex 3 X-coordinate {m}
    0.000000000000,          !- Vertex 3 Y-coordinate {m}
    0.000000000000,          !- Vertex 3 Z-coordinate {m}
    -24.800000000000,        !- Vertex 4 X-coordinate {m}
    0.000000000000,          !- Vertex 4 Y-coordinate {m}
    2.850000000000;          !- Vertex 4 Z-coordinate {m}


!-   ===========  ALL OBJECTS IN CLASS: FENESTRATIONSURFACE:DETAILED ===========

FenestrationSurface:Detailed,
    P1_W01,                  !- Name
    Window,                  !- Surface Type
    Exterior Window,         !- Construction Name
    CEF763,                  !- Building Surface Name
    ,                        !- Outside Boundary Condition Object
    ,                        !- View Factor to Ground
    ,                        !- Frame and Divider Name
    ,                        !- Multiplier
    4,                       !- Number of Vertices
    -1.470000000000,         !- Vertex 1 X-coordinate {m}
    0.000000000000,          !- Vertex 1 Y-coordinate {m}
    2.100000000000,          !- Vertex 1 Z-coordinate {m}
    -1.470000000000,         !- Vertex 2 X-coordinate {m}
    0.000000000000,          !- Vertex 2 Y-coordinate {m}
    1.100000000000,          !- Vertex 2 Z-coordinate {m}
    -2.870000000000,         !- Vertex 3 X-coordinate {m}
    0.000000000000,          !- Vertex 3 Y-coordinate {m}
    1.100000000000,          !- Vertex 3 Z-coordinate {m}
    -2.870000000000,         !- Vertex 4 X-coordinate {m}
    0.000000000000,          !- Vertex 4 Y-coordinate {m}
    2.100000000000;          !- Vertex 4 Z-coordinate {m}

FenestrationSurface:Detailed,
    P1_W02,                  !- Name
    Window,                  !- Surface Type
    Exterior Window,         !- Construction Name
    CEF763,                  !- Building Surface Name
    ,                        !- Outside Boundary Condition Object
    ,                        !- View Factor to Ground
    ,                        !- Frame and Divider Name
    ,                        !- Multiplier
    4,                       !- Number of Vertices
    -4.550000000000,         !- Vertex 1 X-coordinate {m}
    0.000000000000,          !- Vertex 1 Y-coordinate {m}
    2.100000000000,          !- Vertex 1 Z-coordinate {m}
    -4.550000000000,         !- Vertex 2 X-coordinate {m}
    0.000000000000,          !- Vertex 2 Y-coordinate {m}
    1.100000000000,          !- Vertex 2 Z-coordinate {m}
    -5.950000000000,         !- Vertex 3 X-coordinate {m}
    0.000000000000,          !- Vertex 3 Y-coordinate {m}
    1.100000000000,          !- Vertex 3 Z-coordinate {m}
    -5.950000000000,         !- Vertex 4 X-coordinate {m}
    0.000000000000,          !- Vertex 4 Y-coordinate {m}
    2.100000000000;          !- Vertex 4 Z-coordinate {m}

FenestrationSurface:Detailed,
    P1_W03 (Kitchen),        !- Name
    Window,                  !- Surface Type
    Exterior Window,         !- Construction Name
    C6D47E,                  !- Building Surface Name
    ,                        !- Outside Boundary Condition Object
    ,                        !- View Factor to Ground
    ,                        !- Frame and Divider Name
    ,                        !- Multiplier
    4,                       !- Number of Vertices
    -2.050000000000,         !- Vertex 1 X-coordinate {m}
    -6.500000000000,         !- Vertex 1 Y-coordinate {m}
    2.100000000000,          !- Vertex 1 Z-coordinate {m}
    -2.050000000000,         !- Vertex 2 X-coordinate {m}
    -6.500000000000,         !- Vertex 2 Y-coordinate {m}
    1.100000000000,          !- Vertex 2 Z-coordinate {m}
    -0.650000000000,         !- Vertex 3 X-coordinate {m}
    -6.500000000000,         !- Vertex 3 Y-coordinate {m}
    1.100000000000,          !- Vertex 3 Z-coordinate {m}
    -0.650000000000,         !- Vertex 4 X-coordinate {m}
    -6.500000000000,         !- Vertex 4 Y-coordinate {m}
    2.100000000000;          !- Vertex 4 Z-coordinate {m}

FenestrationSurface:Detailed,
    P1_W05 (Kitchen),        !- Name
    Window,                  !- Surface Type
    Exterior Window,         !- Construction Name
    C6D47E,                  !- Building Surface Name
    ,                        !- Outside Boundary Condition Object
    ,                        !- View Factor to Ground
    ,                        !- Frame and Divider Name
    ,                        !- Multiplier
    4,                       !- Number of Vertices
    -6.050000000000,         !- Vertex 1 X-coordinate {m}
    -6.500000000000,         !- Vertex 1 Y-coordinate {m}
    2.100000000000,          !- Vertex 1 Z-coordinate {m}
    -6.050000000000,         !- Vertex 2 X-coordinate {m}
    -6.500000000000,         !- Vertex 2 Y-coordinate {m}
    1.100000000000,          !- Vertex 2 Z-coordinate {m}
    -4.650000000000,         !- Vertex 3 X-coordinate {m}
    -6.500000000000,         !- Vertex 3 Y-coordinate {m}
    1.100000000000,          !- Vertex 3 Z-coordinate {m}
    -4.650000000000,         !- Vertex 4 X-coordinate {m}
    -6.500000000000,         !- Vertex 4 Y-coordinate {m}
    2.100000000000;          !- Vertex 4 Z-coordinate {m}

FenestrationSurface:Detailed,
    P1_W04 (WC),             !- Name
    Window,                  !- Surface Type
    Exterior Window,         !- Construction Name
    C6D47E,                  !- Building Surface Name
    ,                        !- Outside Boundary Condition Object
    ,                        !- View Factor to Ground
    ,                        !- Frame and Divider Name
    ,                        !- Multiplier
    4,                       !- Number of Vertices
    -3.600000000000,         !- Vertex 1 X-coordinate {m}
    -6.500000000000,         !- Vertex 1 Y-coordinate {m}
    2.100000000000,          !- Vertex 1 Z-coordinate {m}
    -3.600000000000,         !- Vertex 2 X-coordinate {m}
    -6.500000000000,         !- Vertex 2 Y-coordinate {m}
    1.350000000000,          !- Vertex 2 Z-coordinate {m}
    -2.900000000000,         !- Vertex 3 X-coordinate {m}
    -6.500000000000,         !- Vertex 3 Y-coordinate {m}
    1.350000000000,          !- Vertex 3 Z-coordinate {m}
    -2.900000000000,         !- Vertex 4 X-coordinate {m}
    -6.500000000000,         !- Vertex 4 Y-coordinate {m}
    2.100000000000;          !- Vertex 4 Z-coordinate {m}

FenestrationSurface:Detailed,
    P1_W07,                  !- Name
    Window,                  !- Surface Type
    Exterior Window,         !- Construction Name
    F780B3,                  !- Building Surface Name
    ,                        !- Outside Boundary Condition Object
    ,                        !- View Factor to Ground
    ,                        !- Frame and Divider Name
    ,                        !- Multiplier
    4,                       !- Number of Vertices
    -9.850000000000,         !- Vertex 1 X-coordinate {m}
    0.000000000000,          !- Vertex 1 Y-coordinate {m}
    2.100000000000,          !- Vertex 1 Z-coordinate {m}
    -9.850000000000,         !- Vertex 2 X-coordinate {m}
    0.000000000000,          !- Vertex 2 Y-coordinate {m}
    1.100000000000,          !- Vertex 2 Z-coordinate {m}
    -11.250000000000,        !- Vertex 3 X-coordinate {m}
    0.000000000000,          !- Vertex 3 Y-coordinate {m}
    1.100000000000,          !- Vertex 3 Z-coordinate {m}
    -11.250000000000,        !- Vertex 4 X-coordinate {m}
    0.000000000000,          !- Vertex 4 Y-coordinate {m}
    2.100000000000;          !- Vertex 4 Z-coordinate {m}

FenestrationSurface:Detailed,
    P1_W06,                  !- Name
    Window,                  !- Surface Type
    Exterior Window,         !- Construction Name
    F780B3,                  !- Building Surface Name
    ,                        !- Outside Boundary Condition Object
    ,                        !- View Factor to Ground
    ,                        !- Frame and Divider Name
    ,                        !- Multiplier
    4,                       !- Number of Vertices
    -12.930000000000,        !- Vertex 1 X-coordinate {m}
    0.000000000000,          !- Vertex 1 Y-coordinate {m}
    2.100000000000,          !- Vertex 1 Z-coordinate {m}
    -12.930000000000,        !- Vertex 2 X-coordinate {m}
    0.000000000000,          !- Vertex 2 Y-coordinate {m}
    1.100000000000,          !- Vertex 2 Z-coordinate {m}
    -14.330000000000,        !- Vertex 3 X-coordinate {m}
    0.000000000000,          !- Vertex 3 Y-coordinate {m}
    1.100000000000,          !- Vertex 3 Z-coordinate {m}
    -14.330000000000,        !- Vertex 4 X-coordinate {m}
    0.000000000000,          !- Vertex 4 Y-coordinate {m}
    2.100000000000;          !- Vertex 4 Z-coordinate {m}

FenestrationSurface:Detailed,
    P1_W10,                  !- Name
    Window,                  !- Surface Type
    Exterior Window,         !- Construction Name
    F4F2A5,                  !- Building Surface Name
    ,                        !- Outside Boundary Condition Object
    ,                        !- View Factor to Ground
    ,                        !- Frame and Divider Name
    ,                        !- Multiplier
    4,                       !- Number of Vertices
    -15.250000000000,        !- Vertex 1 X-coordinate {m}
    -6.500000000000,         !- Vertex 1 Y-coordinate {m}
    2.100000000000,          !- Vertex 1 Z-coordinate {m}
    -15.250000000000,        !- Vertex 2 X-coordinate {m}
    -6.500000000000,         !- Vertex 2 Y-coordinate {m}
    1.100000000000,          !- Vertex 2 Z-coordinate {m}
    -13.850000000000,        !- Vertex 3 X-coordinate {m}
    -6.500000000000,         !- Vertex 3 Y-coordinate {m}
    1.100000000000,          !- Vertex 3 Z-coordinate {m}
    -13.850000000000,        !- Vertex 4 X-coordinate {m}
    -6.500000000000,         !- Vertex 4 Y-coordinate {m}
    2.100000000000;          !- Vertex 4 Z-coordinate {m}

FenestrationSurface:Detailed,
    P1_W09 (WC),             !- Name
    Window,                  !- Surface Type
    Exterior Window,         !- Construction Name
    F4F2A5,                  !- Building Surface Name
    ,                        !- Outside Boundary Condition Object
    ,                        !- View Factor to Ground
    ,                        !- Frame and Divider Name
    ,                        !- Multiplier
    4,                       !- Number of Vertices
    -12.700000000000,        !- Vertex 1 X-coordinate {m}
    -6.500000000000,         !- Vertex 1 Y-coordinate {m}
    2.100000000000,          !- Vertex 1 Z-coordinate {m}
    -12.700000000000,        !- Vertex 2 X-coordinate {m}
    -6.500000000000,         !- Vertex 2 Y-coordinate {m}
    1.350000000000,          !- Vertex 2 Z-coordinate {m}
    -12.000000000000,        !- Vertex 3 X-coordinate {m}
    -6.500000000000,         !- Vertex 3 Y-coordinate {m}
    1.350000000000,          !- Vertex 3 Z-coordinate {m}
    -12.000000000000,        !- Vertex 4 X-coordinate {m}
    -6.500000000000,         !- Vertex 4 Y-coordinate {m}
    2.100000000000;          !- Vertex 4 Z-coordinate {m}

FenestrationSurface:Detailed,
    P1_W08 (Kitchen),        !- Name
    Window,                  !- Surface Type
    Exterior Window,         !- Construction Name
    F4F2A5,                  !- Building Surface Name
    ,                        !- Outside Boundary Condition Object
    ,                        !- View Factor to Ground
    ,                        !- Frame and Divider Name
    ,                        !- Multiplier
    4,                       !- Number of Vertices
    -11.050000000000,        !- Vertex 1 X-coordinate {m}
    -6.500000000000,         !- Vertex 1 Y-coordinate {m}
    2.100000000000,          !- Vertex 1 Z-coordinate {m}
    -11.050000000000,        !- Vertex 2 X-coordinate {m}
    -6.500000000000,         !- Vertex 2 Y-coordinate {m}
    1.100000000000,          !- Vertex 2 Z-coordinate {m}
    -9.650000000000,         !- Vertex 3 X-coordinate {m}
    -6.500000000000,         !- Vertex 3 Y-coordinate {m}
    1.100000000000,          !- Vertex 3 Z-coordinate {m}
    -9.650000000000,         !- Vertex 4 X-coordinate {m}
    -6.500000000000,         !- Vertex 4 Y-coordinate {m}
    2.100000000000;          !- Vertex 4 Z-coordinate {m}

FenestrationSurface:Detailed,
    P1_W11,                  !- Name
    Window,                  !- Surface Type
    Exterior Window,         !- Construction Name
    784020,                  !- Building Surface Name
    ,                        !- Outside Boundary Condition Object
    ,                        !- View Factor to Ground
    ,                        !- Frame and Divider Name
    ,                        !- Multiplier
    4,                       !- Number of Vertices
    -17.270000000000,        !- Vertex 1 X-coordinate {m}
    0.000000000000,          !- Vertex 1 Y-coordinate {m}
    2.100000000000,          !- Vertex 1 Z-coordinate {m}
    -17.270000000000,        !- Vertex 2 X-coordinate {m}
    0.000000000000,          !- Vertex 2 Y-coordinate {m}
    1.100000000000,          !- Vertex 2 Z-coordinate {m}
    -18.670000000000,        !- Vertex 3 X-coordinate {m}
    0.000000000000,          !- Vertex 3 Y-coordinate {m}
    1.100000000000,          !- Vertex 3 Z-coordinate {m}
    -18.670000000000,        !- Vertex 4 X-coordinate {m}
    0.000000000000,          !- Vertex 4 Y-coordinate {m}
    2.100000000000;          !- Vertex 4 Z-coordinate {m}

FenestrationSurface:Detailed,
    P1_W12,                  !- Name
    Window,                  !- Surface Type
    Exterior Window,         !- Construction Name
    784020,                  !- Building Surface Name
    ,                        !- Outside Boundary Condition Object
    ,                        !- View Factor to Ground
    ,                        !- Frame and Divider Name
    ,                        !- Multiplier
    4,                       !- Number of Vertices
    -20.350000000000,        !- Vertex 1 X-coordinate {m}
    0.000000000000,          !- Vertex 1 Y-coordinate {m}
    2.100000000000,          !- Vertex 1 Z-coordinate {m}
    -20.350000000000,        !- Vertex 2 X-coordinate {m}
    0.000000000000,          !- Vertex 2 Y-coordinate {m}
    1.100000000000,          !- Vertex 2 Z-coordinate {m}
    -21.750000000000,        !- Vertex 3 X-coordinate {m}
    0.000000000000,          !- Vertex 3 Y-coordinate {m}
    1.100000000000,          !- Vertex 3 Z-coordinate {m}
    -21.750000000000,        !- Vertex 4 X-coordinate {m}
    0.000000000000,          !- Vertex 4 Y-coordinate {m}
    2.100000000000;          !- Vertex 4 Z-coordinate {m}

FenestrationSurface:Detailed,
    P1_W13,                  !- Name
    Window,                  !- Surface Type
    Exterior Window,         !- Construction Name
    7EF84F,                  !- Building Surface Name
    ,                        !- Outside Boundary Condition Object
    ,                        !- View Factor to Ground
    ,                        !- Frame and Divider Name
    ,                        !- Multiplier
    4,                       !- Number of Vertices
    -17.750000000000,        !- Vertex 1 X-coordinate {m}
    -6.500000000000,         !- Vertex 1 Y-coordinate {m}
    2.100000000000,          !- Vertex 1 Z-coordinate {m}
    -17.750000000000,        !- Vertex 2 X-coordinate {m}
    -6.500000000000,         !- Vertex 2 Y-coordinate {m}
    1.100000000000,          !- Vertex 2 Z-coordinate {m}
    -16.350000000000,        !- Vertex 3 X-coordinate {m}
    -6.500000000000,         !- Vertex 3 Y-coordinate {m}
    1.100000000000,          !- Vertex 3 Z-coordinate {m}
    -16.350000000000,        !- Vertex 4 X-coordinate {m}
    -6.500000000000,         !- Vertex 4 Y-coordinate {m}
    2.100000000000;          !- Vertex 4 Z-coordinate {m}

FenestrationSurface:Detailed,
    P1_W15 (Kitchen),        !- Name
    Window,                  !- Surface Type
    Exterior Window,         !- Construction Name
    7EF84F,                  !- Building Surface Name
    ,                        !- Outside Boundary Condition Object
    ,                        !- View Factor to Ground
    ,                        !- Frame and Divider Name
    ,                        !- Multiplier
    4,                       !- Number of Vertices
    -21.950000000000,        !- Vertex 1 X-coordinate {m}
    -6.500000000000,         !- Vertex 1 Y-coordinate {m}
    2.100000000000,          !- Vertex 1 Z-coordinate {m}
    -21.950000000000,        !- Vertex 2 X-coordinate {m}
    -6.500000000000,         !- Vertex 2 Y-coordinate {m}
    1.100000000000,          !- Vertex 2 Z-coordinate {m}
    -20.550000000000,        !- Vertex 3 X-coordinate {m}
    -6.500000000000,         !- Vertex 3 Y-coordinate {m}
    1.100000000000,          !- Vertex 3 Z-coordinate {m}
    -20.550000000000,        !- Vertex 4 X-coordinate {m}
    -6.500000000000,         !- Vertex 4 Y-coordinate {m}
    2.100000000000;          !- Vertex 4 Z-coordinate {m}

FenestrationSurface:Detailed,
    P1_W14 (WC),             !- Name
    Window,                  !- Surface Type
    Exterior Window,         !- Construction Name
    7EF84F,                  !- Building Surface Name
    ,                        !- Outside Boundary Condition Object
    ,                        !- View Factor to Ground
    ,                        !- Frame and Divider Name
    ,                        !- Multiplier
    4,                       !- Number of Vertices
    -19.400000000000,        !- Vertex 1 X-coordinate {m}
    -6.500000000000,         !- Vertex 1 Y-coordinate {m}
    2.100000000000,          !- Vertex 1 Z-coordinate {m}
    -19.400000000000,        !- Vertex 2 X-coordinate {m}
    -6.500000000000,         !- Vertex 2 Y-coordinate {m}
    1.350000000000,          !- Vertex 2 Z-coordinate {m}
    -18.707669894195,        !- Vertex 3 X-coordinate {m}
    -6.500000000000,         !- Vertex 3 Y-coordinate {m}
    1.350000000000,          !- Vertex 3 Z-coordinate {m}
    -18.707669894195,        !- Vertex 4 X-coordinate {m}
    -6.500000000000,         !- Vertex 4 Y-coordinate {m}
    2.100000000000;          !- Vertex 4 Z-coordinate {m}

FenestrationSurface:Detailed,
    P1_W17,                  !- Name
    Window,                  !- Surface Type
    Exterior Window,         !- Construction Name
    C70EDC,                  !- Building Surface Name
    ,                        !- Outside Boundary Condition Object
    ,                        !- View Factor to Ground
    ,                        !- Frame and Divider Name
    ,                        !- Multiplier
    4,                       !- Number of Vertices
    -25.650000000000,        !- Vertex 1 X-coordinate {m}
    0.000000000000,          !- Vertex 1 Y-coordinate {m}
    2.100000000000,          !- Vertex 1 Z-coordinate {m}
    -25.650000000000,        !- Vertex 2 X-coordinate {m}
    0.000000000000,          !- Vertex 2 Y-coordinate {m}
    1.100000000000,          !- Vertex 2 Z-coordinate {m}
    -27.050000000000,        !- Vertex 3 X-coordinate {m}
    0.000000000000,          !- Vertex 3 Y-coordinate {m}
    1.100000000000,          !- Vertex 3 Z-coordinate {m}
    -27.050000000000,        !- Vertex 4 X-coordinate {m}
    0.000000000000,          !- Vertex 4 Y-coordinate {m}
    2.100000000000;          !- Vertex 4 Z-coordinate {m}

FenestrationSurface:Detailed,
    P1_W16,                  !- Name
    Window,                  !- Surface Type
    Exterior Window,         !- Construction Name
    C70EDC,                  !- Building Surface Name
    ,                        !- Outside Boundary Condition Object
    ,                        !- View Factor to Ground
    ,                        !- Frame and Divider Name
    ,                        !- Multiplier
    4,                       !- Number of Vertices
    -28.730000000000,        !- Vertex 1 X-coordinate {m}
    0.000000000000,          !- Vertex 1 Y-coordinate {m}
    2.100000000000,          !- Vertex 1 Z-coordinate {m}
    -28.730000000000,        !- Vertex 2 X-coordinate {m}
    0.000000000000,          !- Vertex 2 Y-coordinate {m}
    1.100000000000,          !- Vertex 2 Z-coordinate {m}
    -30.130000000000,        !- Vertex 3 X-coordinate {m}
    0.000000000000,          !- Vertex 3 Y-coordinate {m}
    1.100000000000,          !- Vertex 3 Z-coordinate {m}
    -30.130000000000,        !- Vertex 4 X-coordinate {m}
    0.000000000000,          !- Vertex 4 Y-coordinate {m}
    2.100000000000;          !- Vertex 4 Z-coordinate {m}

FenestrationSurface:Detailed,
    P1_W20,                  !- Name
    Window,                  !- Surface Type
    Exterior Window,         !- Construction Name
    A01CDE,                  !- Building Surface Name
    ,                        !- Outside Boundary Condition Object
    ,                        !- View Factor to Ground
    ,                        !- Frame and Divider Name
    ,                        !- Multiplier
    4,                       !- Number of Vertices
    -31.050000000000,        !- Vertex 1 X-coordinate {m}
    -6.500000000000,         !- Vertex 1 Y-coordinate {m}
    2.100000000000,          !- Vertex 1 Z-coordinate {m}
    -31.050000000000,        !- Vertex 2 X-coordinate {m}
    -6.500000000000,         !- Vertex 2 Y-coordinate {m}
    1.100000000000,          !- Vertex 2 Z-coordinate {m}
    -29.650000000000,        !- Vertex 3 X-coordinate {m}
    -6.500000000000,         !- Vertex 3 Y-coordinate {m}
    1.100000000000,          !- Vertex 3 Z-coordinate {m}
    -29.650000000000,        !- Vertex 4 X-coordinate {m}
    -6.500000000000,         !- Vertex 4 Y-coordinate {m}
    2.100000000000;          !- Vertex 4 Z-coordinate {m}

FenestrationSurface:Detailed,
    P1_W19 (WC),             !- Name
    Window,                  !- Surface Type
    Exterior Window,         !- Construction Name
    A01CDE,                  !- Building Surface Name
    ,                        !- Outside Boundary Condition Object
    ,                        !- View Factor to Ground
    ,                        !- Frame and Divider Name
    ,                        !- Multiplier
    4,                       !- Number of Vertices
    -28.500000000000,        !- Vertex 1 X-coordinate {m}
    -6.500000000000,         !- Vertex 1 Y-coordinate {m}
    2.100000000000,          !- Vertex 1 Z-coordinate {m}
    -28.500000000000,        !- Vertex 2 X-coordinate {m}
    -6.500000000000,         !- Vertex 2 Y-coordinate {m}
    1.350000000000,          !- Vertex 2 Z-coordinate {m}
    -27.791589437423,        !- Vertex 3 X-coordinate {m}
    -6.500000000000,         !- Vertex 3 Y-coordinate {m}
    1.350000000000,          !- Vertex 3 Z-coordinate {m}
    -27.791589437423,        !- Vertex 4 X-coordinate {m}
    -6.500000000000,         !- Vertex 4 Y-coordinate {m}
    2.100000000000;          !- Vertex 4 Z-coordinate {m}

FenestrationSurface:Detailed,
    P1_W18 (Kitchen),        !- Name
    Window,                  !- Surface Type
    Exterior Window,         !- Construction Name
    A01CDE,                  !- Building Surface Name
    ,                        !- Outside Boundary Condition Object
    ,                        !- View Factor to Ground
    ,                        !- Frame and Divider Name
    ,                        !- Multiplier
    4,                       !- Number of Vertices
    -26.850000000000,        !- Vertex 1 X-coordinate {m}
    -6.500000000000,         !- Vertex 1 Y-coordinate {m}
    2.100000000000,          !- Vertex 1 Z-coordinate {m}
    -26.850000000000,        !- Vertex 2 X-coordinate {m}
    -6.500000000000,         !- Vertex 2 Y-coordinate {m}
    1.100000000000,          !- Vertex 2 Z-coordinate {m}
    -25.450000000000,        !- Vertex 3 X-coordinate {m}
    -6.500000000000,         !- Vertex 3 Y-coordinate {m}
    1.100000000000,          !- Vertex 3 Z-coordinate {m}
    -25.450000000000,        !- Vertex 4 X-coordinate {m}
    -6.500000000000,         !- Vertex 4 Y-coordinate {m}
    2.100000000000;          !- Vertex 4 Z-coordinate {m}

FenestrationSurface:Detailed,
    P2_W07,                  !- Name
    Window,                  !- Surface Type
    Exterior Window,         !- Construction Name
    69F8B5,                  !- Building Surface Name
    ,                        !- Outside Boundary Condition Object
    ,                        !- View Factor to Ground
    ,                        !- Frame and Divider Name
    ,                        !- Multiplier
    4,                       !- Number of Vertices
    -9.850000000000,         !- Vertex 1 X-coordinate {m}
    0.000000000000,          !- Vertex 1 Y-coordinate {m}
    4.950000000000,          !- Vertex 1 Z-coordinate {m}
    -9.850000000000,         !- Vertex 2 X-coordinate {m}
    0.000000000000,          !- Vertex 2 Y-coordinate {m}
    3.950000000000,          !- Vertex 2 Z-coordinate {m}
    -11.250000000000,        !- Vertex 3 X-coordinate {m}
    0.000000000000,          !- Vertex 3 Y-coordinate {m}
    3.950000000000,          !- Vertex 3 Z-coordinate {m}
    -11.250000000000,        !- Vertex 4 X-coordinate {m}
    0.000000000000,          !- Vertex 4 Y-coordinate {m}
    4.950000000000;          !- Vertex 4 Z-coordinate {m}

FenestrationSurface:Detailed,
    P2_W06,                  !- Name
    Window,                  !- Surface Type
    Exterior Window,         !- Construction Name
    69F8B5,                  !- Building Surface Name
    ,                        !- Outside Boundary Condition Object
    ,                        !- View Factor to Ground
    ,                        !- Frame and Divider Name
    ,                        !- Multiplier
    4,                       !- Number of Vertices
    -12.930000000000,        !- Vertex 1 X-coordinate {m}
    0.000000000000,          !- Vertex 1 Y-coordinate {m}
    4.950000000000,          !- Vertex 1 Z-coordinate {m}
    -12.930000000000,        !- Vertex 2 X-coordinate {m}
    0.000000000000,          !- Vertex 2 Y-coordinate {m}
    3.950000000000,          !- Vertex 2 Z-coordinate {m}
    -14.330000000000,        !- Vertex 3 X-coordinate {m}
    0.000000000000,          !- Vertex 3 Y-coordinate {m}
    3.950000000000,          !- Vertex 3 Z-coordinate {m}
    -14.330000000000,        !- Vertex 4 X-coordinate {m}
    0.000000000000,          !- Vertex 4 Y-coordinate {m}
    4.950000000000;          !- Vertex 4 Z-coordinate {m}

FenestrationSurface:Detailed,
    P2_W10,                  !- Name
    Window,                  !- Surface Type
    Exterior Window,         !- Construction Name
    D3A9CC,                  !- Building Surface Name
    ,                        !- Outside Boundary Condition Object
    ,                        !- View Factor to Ground
    ,                        !- Frame and Divider Name
    ,                        !- Multiplier
    4,                       !- Number of Vertices
    -15.250000000000,        !- Vertex 1 X-coordinate {m}
    -6.500000000000,         !- Vertex 1 Y-coordinate {m}
    4.950000000000,          !- Vertex 1 Z-coordinate {m}
    -15.250000000000,        !- Vertex 2 X-coordinate {m}
    -6.500000000000,         !- Vertex 2 Y-coordinate {m}
    3.950000000000,          !- Vertex 2 Z-coordinate {m}
    -13.850000000000,        !- Vertex 3 X-coordinate {m}
    -6.500000000000,         !- Vertex 3 Y-coordinate {m}
    3.950000000000,          !- Vertex 3 Z-coordinate {m}
    -13.850000000000,        !- Vertex 4 X-coordinate {m}
    -6.500000000000,         !- Vertex 4 Y-coordinate {m}
    4.950000000000;          !- Vertex 4 Z-coordinate {m}

FenestrationSurface:Detailed,
    P2_W09 (WC),             !- Name
    Window,                  !- Surface Type
    Exterior Window,         !- Construction Name
    D3A9CC,                  !- Building Surface Name
    ,                        !- Outside Boundary Condition Object
    ,                        !- View Factor to Ground
    ,                        !- Frame and Divider Name
    ,                        !- Multiplier
    4,                       !- Number of Vertices
    -12.700000000000,        !- Vertex 1 X-coordinate {m}
    -6.500000000000,         !- Vertex 1 Y-coordinate {m}
    4.950000000000,          !- Vertex 1 Z-coordinate {m}
    -12.700000000000,        !- Vertex 2 X-coordinate {m}
    -6.500000000000,         !- Vertex 2 Y-coordinate {m}
    4.200000000000,          !- Vertex 2 Z-coordinate {m}
    -12.000000000000,        !- Vertex 3 X-coordinate {m}
    -6.500000000000,         !- Vertex 3 Y-coordinate {m}
    4.200000000000,          !- Vertex 3 Z-coordinate {m}
    -12.000000000000,        !- Vertex 4 X-coordinate {m}
    -6.500000000000,         !- Vertex 4 Y-coordinate {m}
    4.950000000000;          !- Vertex 4 Z-coordinate {m}

FenestrationSurface:Detailed,
    P2_W17,                  !- Name
    Window,                  !- Surface Type
    Exterior Window,         !- Construction Name
    DFB9D5,                  !- Building Surface Name
    ,                        !- Outside Boundary Condition Object
    ,                        !- View Factor to Ground
    ,                        !- Frame and Divider Name
    ,                        !- Multiplier
    4,                       !- Number of Vertices
    -25.650000000000,        !- Vertex 1 X-coordinate {m}
    0.000000000000,          !- Vertex 1 Y-coordinate {m}
    4.950000000000,          !- Vertex 1 Z-coordinate {m}
    -25.650000000000,        !- Vertex 2 X-coordinate {m}
    0.000000000000,          !- Vertex 2 Y-coordinate {m}
    3.950000000000,          !- Vertex 2 Z-coordinate {m}
    -27.050000000000,        !- Vertex 3 X-coordinate {m}
    0.000000000000,          !- Vertex 3 Y-coordinate {m}
    3.950000000000,          !- Vertex 3 Z-coordinate {m}
    -27.050000000000,        !- Vertex 4 X-coordinate {m}
    0.000000000000,          !- Vertex 4 Y-coordinate {m}
    4.950000000000;          !- Vertex 4 Z-coordinate {m}

FenestrationSurface:Detailed,
    P2_W16,                  !- Name
    Window,                  !- Surface Type
    Exterior Window,         !- Construction Name
    DFB9D5,                  !- Building Surface Name
    ,                        !- Outside Boundary Condition Object
    ,                        !- View Factor to Ground
    ,                        !- Frame and Divider Name
    ,                        !- Multiplier
    4,                       !- Number of Vertices
    -28.730000000000,        !- Vertex 1 X-coordinate {m}
    0.000000000000,          !- Vertex 1 Y-coordinate {m}
    4.950000000000,          !- Vertex 1 Z-coordinate {m}
    -28.730000000000,        !- Vertex 2 X-coordinate {m}
    0.000000000000,          !- Vertex 2 Y-coordinate {m}
    3.950000000000,          !- Vertex 2 Z-coordinate {m}
    -30.130000000000,        !- Vertex 3 X-coordinate {m}
    0.000000000000,          !- Vertex 3 Y-coordinate {m}
    3.950000000000,          !- Vertex 3 Z-coordinate {m}
    -30.130000000000,        !- Vertex 4 X-coordinate {m}
    0.000000000000,          !- Vertex 4 Y-coordinate {m}
    4.950000000000;          !- Vertex 4 Z-coordinate {m}

FenestrationSurface:Detailed,
    P2_W20,                  !- Name
    Window,                  !- Surface Type
    Exterior Window,         !- Construction Name
    31AD4E,                  !- Building Surface Name
    ,                        !- Outside Boundary Condition Object
    ,                        !- View Factor to Ground
    ,                        !- Frame and Divider Name
    ,                        !- Multiplier
    4,                       !- Number of Vertices
    -31.050000000000,        !- Vertex 1 X-coordinate {m}
    -6.500000000000,         !- Vertex 1 Y-coordinate {m}
    4.950000000000,          !- Vertex 1 Z-coordinate {m}
    -31.050000000000,        !- Vertex 2 X-coordinate {m}
    -6.500000000000,         !- Vertex 2 Y-coordinate {m}
    3.950000000000,          !- Vertex 2 Z-coordinate {m}
    -29.650000000000,        !- Vertex 3 X-coordinate {m}
    -6.500000000000,         !- Vertex 3 Y-coordinate {m}
    3.950000000000,          !- Vertex 3 Z-coordinate {m}
    -29.650000000000,        !- Vertex 4 X-coordinate {m}
    -6.500000000000,         !- Vertex 4 Y-coordinate {m}
    4.950000000000;          !- Vertex 4 Z-coordinate {m}

FenestrationSurface:Detailed,
    P2_W19 (WC),             !- Name
    Window,                  !- Surface Type
    Exterior Window,         !- Construction Name
    31AD4E,                  !- Building Surface Name
    ,                        !- Outside Boundary Condition Object
    ,                        !- View Factor to Ground
    ,                        !- Frame and Divider Name
    ,                        !- Multiplier
    4,                       !- Number of Vertices
    -28.500000000000,        !- Vertex 1 X-coordinate {m}
    -6.500000000000,         !- Vertex 1 Y-coordinate {m}
    4.950000000000,          !- Vertex 1 Z-coordinate {m}
    -28.500000000000,        !- Vertex 2 X-coordinate {m}
    -6.500000000000,         !- Vertex 2 Y-coordinate {m}
    4.200000000000,          !- Vertex 2 Z-coordinate {m}
    -27.791589437423,        !- Vertex 3 X-coordinate {m}
    -6.500000000000,         !- Vertex 3 Y-coordinate {m}
    4.200000000000,          !- Vertex 3 Z-coordinate {m}
    -27.791589437423,        !- Vertex 4 X-coordinate {m}
    -6.500000000000,         !- Vertex 4 Y-coordinate {m}
    4.950000000000;          !- Vertex 4 Z-coordinate {m}

FenestrationSurface:Detailed,
    P2_W18 (Kitchen),        !- Name
    Window,                  !- Surface Type
    Exterior Window,         !- Construction Name
    31AD4E,                  !- Building Surface Name
    ,                        !- Outside Boundary Condition Object
    ,                        !- View Factor to Ground
    ,                        !- Frame and Divider Name
    ,                        !- Multiplier
    4,                       !- Number of Vertices
    -26.850000000000,        !- Vertex 1 X-coordinate {m}
    -6.500000000000,         !- Vertex 1 Y-coordinate {m}
    4.950000000000,          !- Vertex 1 Z-coordinate {m}
    -26.850000000000,        !- Vertex 2 X-coordinate {m}
    -6.500000000000,         !- Vertex 2 Y-coordinate {m}
    3.950000000000,          !- Vertex 2 Z-coordinate {m}
    -25.450000000000,        !- Vertex 3 X-coordinate {m}
    -6.500000000000,         !- Vertex 3 Y-coordinate {m}
    3.950000000000,          !- Vertex 3 Z-coordinate {m}
    -25.450000000000,        !- Vertex 4 X-coordinate {m}
    -6.500000000000,         !- Vertex 4 Y-coordinate {m}
    4.950000000000;          !- Vertex 4 Z-coordinate {m}

FenestrationSurface:Detailed,
    P2_W01,                  !- Name
    Window,                  !- Surface Type
    Exterior Window,         !- Construction Name
    BBD2E3,                  !- Building Surface Name
    ,                        !- Outside Boundary Condition Object
    ,                        !- View Factor to Ground
    ,                        !- Frame and Divider Name
    ,                        !- Multiplier
    4,                       !- Number of Vertices
    -1.470000000000,         !- Vertex 1 X-coordinate {m}
    0.000000000000,          !- Vertex 1 Y-coordinate {m}
    4.950000000000,          !- Vertex 1 Z-coordinate {m}
    -1.470000000000,         !- Vertex 2 X-coordinate {m}
    0.000000000000,          !- Vertex 2 Y-coordinate {m}
    3.950000000000,          !- Vertex 2 Z-coordinate {m}
    -2.870000000000,         !- Vertex 3 X-coordinate {m}
    0.000000000000,          !- Vertex 3 Y-coordinate {m}
    3.950000000000,          !- Vertex 3 Z-coordinate {m}
    -2.870000000000,         !- Vertex 4 X-coordinate {m}
    0.000000000000,          !- Vertex 4 Y-coordinate {m}
    4.950000000000;          !- Vertex 4 Z-coordinate {m}

FenestrationSurface:Detailed,
    P2_W02,                  !- Name
    Window,                  !- Surface Type
    Exterior Window,         !- Construction Name
    BBD2E3,                  !- Building Surface Name
    ,                        !- Outside Boundary Condition Object
    ,                        !- View Factor to Ground
    ,                        !- Frame and Divider Name
    ,                        !- Multiplier
    4,                       !- Number of Vertices
    -4.550000000000,         !- Vertex 1 X-coordinate {m}
    0.000000000000,          !- Vertex 1 Y-coordinate {m}
    4.950000000000,          !- Vertex 1 Z-coordinate {m}
    -4.550000000000,         !- Vertex 2 X-coordinate {m}
    0.000000000000,          !- Vertex 2 Y-coordinate {m}
    3.950000000000,          !- Vertex 2 Z-coordinate {m}
    -5.950000000000,         !- Vertex 3 X-coordinate {m}
    0.000000000000,          !- Vertex 3 Y-coordinate {m}
    3.950000000000,          !- Vertex 3 Z-coordinate {m}
    -5.950000000000,         !- Vertex 4 X-coordinate {m}
    0.000000000000,          !- Vertex 4 Y-coordinate {m}
    4.950000000000;          !- Vertex 4 Z-coordinate {m}

FenestrationSurface:Detailed,
    P2_W03,                  !- Name
    Window,                  !- Surface Type
    Exterior Window,         !- Construction Name
    196591,                  !- Building Surface Name
    ,                        !- Outside Boundary Condition Object
    ,                        !- View Factor to Ground
    ,                        !- Frame and Divider Name
    ,                        !- Multiplier
    4,                       !- Number of Vertices
    -2.050000000000,         !- Vertex 1 X-coordinate {m}
    -6.500000000000,         !- Vertex 1 Y-coordinate {m}
    4.950000000000,          !- Vertex 1 Z-coordinate {m}
    -2.050000000000,         !- Vertex 2 X-coordinate {m}
    -6.500000000000,         !- Vertex 2 Y-coordinate {m}
    3.950000000000,          !- Vertex 2 Z-coordinate {m}
    -0.650000000000,         !- Vertex 3 X-coordinate {m}
    -6.500000000000,         !- Vertex 3 Y-coordinate {m}
    3.950000000000,          !- Vertex 3 Z-coordinate {m}
    -0.650000000000,         !- Vertex 4 X-coordinate {m}
    -6.500000000000,         !- Vertex 4 Y-coordinate {m}
    4.950000000000;          !- Vertex 4 Z-coordinate {m}

FenestrationSurface:Detailed,
    P2_W05 (Kitchen),        !- Name
    Window,                  !- Surface Type
    Exterior Window,         !- Construction Name
    196591,                  !- Building Surface Name
    ,                        !- Outside Boundary Condition Object
    ,                        !- View Factor to Ground
    ,                        !- Frame and Divider Name
    ,                        !- Multiplier
    4,                       !- Number of Vertices
    -6.050000000000,         !- Vertex 1 X-coordinate {m}
    -6.500000000000,         !- Vertex 1 Y-coordinate {m}
    4.950000000000,          !- Vertex 1 Z-coordinate {m}
    -6.050000000000,         !- Vertex 2 X-coordinate {m}
    -6.500000000000,         !- Vertex 2 Y-coordinate {m}
    3.950000000000,          !- Vertex 2 Z-coordinate {m}
    -4.650000000000,         !- Vertex 3 X-coordinate {m}
    -6.500000000000,         !- Vertex 3 Y-coordinate {m}
    3.950000000000,          !- Vertex 3 Z-coordinate {m}
    -4.650000000000,         !- Vertex 4 X-coordinate {m}
    -6.500000000000,         !- Vertex 4 Y-coordinate {m}
    4.950000000000;          !- Vertex 4 Z-coordinate {m}

FenestrationSurface:Detailed,
    P2_W04 (WC),             !- Name
    Window,                  !- Surface Type
    Exterior Window,         !- Construction Name
    196591,                  !- Building Surface Name
    ,                        !- Outside Boundary Condition Object
    ,                        !- View Factor to Ground
    ,                        !- Frame and Divider Name
    ,                        !- Multiplier
    4,                       !- Number of Vertices
    -3.600000000000,         !- Vertex 1 X-coordinate {m}
    -6.500000000000,         !- Vertex 1 Y-coordinate {m}
    4.950000000000,          !- Vertex 1 Z-coordinate {m}
    -3.600000000000,         !- Vertex 2 X-coordinate {m}
    -6.500000000000,         !- Vertex 2 Y-coordinate {m}
    4.200000000000,          !- Vertex 2 Z-coordinate {m}
    -2.900000000000,         !- Vertex 3 X-coordinate {m}
    -6.500000000000,         !- Vertex 3 Y-coordinate {m}
    4.200000000000,          !- Vertex 3 Z-coordinate {m}
    -2.900000000000,         !- Vertex 4 X-coordinate {m}
    -6.500000000000,         !- Vertex 4 Y-coordinate {m}
    4.950000000000;          !- Vertex 4 Z-coordinate {m}

FenestrationSurface:Detailed,
    P2_W11,                  !- Name
    Window,                  !- Surface Type
    Exterior Window,         !- Construction Name
    3D00F9,                  !- Building Surface Name
    ,                        !- Outside Boundary Condition Object
    ,                        !- View Factor to Ground
    ,                        !- Frame and Divider Name
    ,                        !- Multiplier
    4,                       !- Number of Vertices
    -17.270000000000,        !- Vertex 1 X-coordinate {m}
    0.000000000000,          !- Vertex 1 Y-coordinate {m}
    4.950000000000,          !- Vertex 1 Z-coordinate {m}
    -17.270000000000,        !- Vertex 2 X-coordinate {m}
    0.000000000000,          !- Vertex 2 Y-coordinate {m}
    3.950000000000,          !- Vertex 2 Z-coordinate {m}
    -18.670000000000,        !- Vertex 3 X-coordinate {m}
    0.000000000000,          !- Vertex 3 Y-coordinate {m}
    3.950000000000,          !- Vertex 3 Z-coordinate {m}
    -18.670000000000,        !- Vertex 4 X-coordinate {m}
    0.000000000000,          !- Vertex 4 Y-coordinate {m}
    4.950000000000;          !- Vertex 4 Z-coordinate {m}

FenestrationSurface:Detailed,
    P2_W12,                  !- Name
    Window,                  !- Surface Type
    Exterior Window,         !- Construction Name
    3D00F9,                  !- Building Surface Name
    ,                        !- Outside Boundary Condition Object
    ,                        !- View Factor to Ground
    ,                        !- Frame and Divider Name
    ,                        !- Multiplier
    4,                       !- Number of Vertices
    -20.350000000000,        !- Vertex 1 X-coordinate {m}
    0.000000000000,          !- Vertex 1 Y-coordinate {m}
    4.950000000000,          !- Vertex 1 Z-coordinate {m}
    -20.350000000000,        !- Vertex 2 X-coordinate {m}
    0.000000000000,          !- Vertex 2 Y-coordinate {m}
    3.950000000000,          !- Vertex 2 Z-coordinate {m}
    -21.750000000000,        !- Vertex 3 X-coordinate {m}
    0.000000000000,          !- Vertex 3 Y-coordinate {m}
    3.950000000000,          !- Vertex 3 Z-coordinate {m}
    -21.750000000000,        !- Vertex 4 X-coordinate {m}
    0.000000000000,          !- Vertex 4 Y-coordinate {m}
    4.950000000000;          !- Vertex 4 Z-coordinate {m}

FenestrationSurface:Detailed,
    P2_W13,                  !- Name
    Window,                  !- Surface Type
    Exterior Window,         !- Construction Name
    41C59D,                  !- Building Surface Name
    ,                        !- Outside Boundary Condition Object
    ,                        !- View Factor to Ground
    ,                        !- Frame and Divider Name
    ,                        !- Multiplier
    4,                       !- Number of Vertices
    -17.750000000000,        !- Vertex 1 X-coordinate {m}
    -6.500000000000,         !- Vertex 1 Y-coordinate {m}
    4.950000000000,          !- Vertex 1 Z-coordinate {m}
    -17.750000000000,        !- Vertex 2 X-coordinate {m}
    -6.500000000000,         !- Vertex 2 Y-coordinate {m}
    3.950000000000,          !- Vertex 2 Z-coordinate {m}
    -16.350000000000,        !- Vertex 3 X-coordinate {m}
    -6.500000000000,         !- Vertex 3 Y-coordinate {m}
    3.950000000000,          !- Vertex 3 Z-coordinate {m}
    -16.350000000000,        !- Vertex 4 X-coordinate {m}
    -6.500000000000,         !- Vertex 4 Y-coordinate {m}
    4.950000000000;          !- Vertex 4 Z-coordinate {m}

FenestrationSurface:Detailed,
    P2_W14 (WC),             !- Name
    Window,                  !- Surface Type
    Exterior Window,         !- Construction Name
    41C59D,                  !- Building Surface Name
    ,                        !- Outside Boundary Condition Object
    ,                        !- View Factor to Ground
    ,                        !- Frame and Divider Name
    ,                        !- Multiplier
    4,                       !- Number of Vertices
    -19.400000000000,        !- Vertex 1 X-coordinate {m}
    -6.500000000000,         !- Vertex 1 Y-coordinate {m}
    4.950000000000,          !- Vertex 1 Z-coordinate {m}
    -19.400000000000,        !- Vertex 2 X-coordinate {m}
    -6.500000000000,         !- Vertex 2 Y-coordinate {m}
    4.200000000000,          !- Vertex 2 Z-coordinate {m}
    -18.707669894195,        !- Vertex 3 X-coordinate {m}
    -6.500000000000,         !- Vertex 3 Y-coordinate {m}
    4.200000000000,          !- Vertex 3 Z-coordinate {m}
    -18.707669894195,        !- Vertex 4 X-coordinate {m}
    -6.500000000000,         !- Vertex 4 Y-coordinate {m}
    4.950000000000;          !- Vertex 4 Z-coordinate {m}

FenestrationSurface:Detailed,
    P3_W17,                  !- Name
    Window,                  !- Surface Type
    Exterior Window,         !- Construction Name
    19C449,                  !- Building Surface Name
    ,                        !- Outside Boundary Condition Object
    ,                        !- View Factor to Ground
    ,                        !- Frame and Divider Name
    ,                        !- Multiplier
    4,                       !- Number of Vertices
    -25.650000000000,        !- Vertex 1 X-coordinate {m}
    0.000000000000,          !- Vertex 1 Y-coordinate {m}
    7.800000000000,          !- Vertex 1 Z-coordinate {m}
    -25.650000000000,        !- Vertex 2 X-coordinate {m}
    0.000000000000,          !- Vertex 2 Y-coordinate {m}
    6.800000000000,          !- Vertex 2 Z-coordinate {m}
    -27.050000000000,        !- Vertex 3 X-coordinate {m}
    0.000000000000,          !- Vertex 3 Y-coordinate {m}
    6.800000000000,          !- Vertex 3 Z-coordinate {m}
    -27.050000000000,        !- Vertex 4 X-coordinate {m}
    0.000000000000,          !- Vertex 4 Y-coordinate {m}
    7.800000000000;          !- Vertex 4 Z-coordinate {m}

FenestrationSurface:Detailed,
    P3_W16,                  !- Name
    Window,                  !- Surface Type
    Exterior Window,         !- Construction Name
    19C449,                  !- Building Surface Name
    ,                        !- Outside Boundary Condition Object
    ,                        !- View Factor to Ground
    ,                        !- Frame and Divider Name
    ,                        !- Multiplier
    4,                       !- Number of Vertices
    -28.730000000000,        !- Vertex 1 X-coordinate {m}
    0.000000000000,          !- Vertex 1 Y-coordinate {m}
    7.800000000000,          !- Vertex 1 Z-coordinate {m}
    -28.730000000000,        !- Vertex 2 X-coordinate {m}
    0.000000000000,          !- Vertex 2 Y-coordinate {m}
    6.800000000000,          !- Vertex 2 Z-coordinate {m}
    -30.130000000000,        !- Vertex 3 X-coordinate {m}
    0.000000000000,          !- Vertex 3 Y-coordinate {m}
    6.800000000000,          !- Vertex 3 Z-coordinate {m}
    -30.130000000000,        !- Vertex 4 X-coordinate {m}
    0.000000000000,          !- Vertex 4 Y-coordinate {m}
    7.800000000000;          !- Vertex 4 Z-coordinate {m}

FenestrationSurface:Detailed,
    P3_W20,                  !- Name
    Window,                  !- Surface Type
    Exterior Window,         !- Construction Name
    EADA62,                  !- Building Surface Name
    ,                        !- Outside Boundary Condition Object
    ,                        !- View Factor to Ground
    ,                        !- Frame and Divider Name
    ,                        !- Multiplier
    4,                       !- Number of Vertices
    -31.050000000000,        !- Vertex 1 X-coordinate {m}
    -6.500000000000,         !- Vertex 1 Y-coordinate {m}
    7.800000000000,          !- Vertex 1 Z-coordinate {m}
    -31.050000000000,        !- Vertex 2 X-coordinate {m}
    -6.500000000000,         !- Vertex 2 Y-coordinate {m}
    6.800000000000,          !- Vertex 2 Z-coordinate {m}
    -29.650000000000,        !- Vertex 3 X-coordinate {m}
    -6.500000000000,         !- Vertex 3 Y-coordinate {m}
    6.800000000000,          !- Vertex 3 Z-coordinate {m}
    -29.650000000000,        !- Vertex 4 X-coordinate {m}
    -6.500000000000,         !- Vertex 4 Y-coordinate {m}
    7.800000000000;          !- Vertex 4 Z-coordinate {m}

FenestrationSurface:Detailed,
    P3_W19 (WC),             !- Name
    Window,                  !- Surface Type
    Exterior Window,         !- Construction Name
    EADA62,                  !- Building Surface Name
    ,                        !- Outside Boundary Condition Object
    ,                        !- View Factor to Ground
    ,                        !- Frame and Divider Name
    ,                        !- Multiplier
    4,                       !- Number of Vertices
    -28.500000000000,        !- Vertex 1 X-coordinate {m}
    -6.500000000000,         !- Vertex 1 Y-coordinate {m}
    7.800000000000,          !- Vertex 1 Z-coordinate {m}
    -28.500000000000,        !- Vertex 2 X-coordinate {m}
    -6.500000000000,         !- Vertex 2 Y-coordinate {m}
    7.050000000000,          !- Vertex 2 Z-coordinate {m}
    -27.791589437423,        !- Vertex 3 X-coordinate {m}
    -6.500000000000,         !- Vertex 3 Y-coordinate {m}
    7.050000000000,          !- Vertex 3 Z-coordinate {m}
    -27.791589437423,        !- Vertex 4 X-coordinate {m}
    -6.500000000000,         !- Vertex 4 Y-coordinate {m}
    7.800000000000;          !- Vertex 4 Z-coordinate {m}

FenestrationSurface:Detailed,
    P3_W18 (Kitchen),        !- Name
    Window,                  !- Surface Type
    Exterior Window,         !- Construction Name
    EADA62,                  !- Building Surface Name
    ,                        !- Outside Boundary Condition Object
    ,                        !- View Factor to Ground
    ,                        !- Frame and Divider Name
    ,                        !- Multiplier
    4,                       !- Number of Vertices
    -26.850000000000,        !- Vertex 1 X-coordinate {m}
    -6.500000000000,         !- Vertex 1 Y-coordinate {m}
    7.800000000000,          !- Vertex 1 Z-coordinate {m}
    -26.850000000000,        !- Vertex 2 X-coordinate {m}
    -6.500000000000,         !- Vertex 2 Y-coordinate {m}
    6.800000000000,          !- Vertex 2 Z-coordinate {m}
    -25.450000000000,        !- Vertex 3 X-coordinate {m}
    -6.500000000000,         !- Vertex 3 Y-coordinate {m}
    6.800000000000,          !- Vertex 3 Z-coordinate {m}
    -25.450000000000,        !- Vertex 4 X-coordinate {m}
    -6.500000000000,         !- Vertex 4 Y-coordinate {m}
    7.800000000000;          !- Vertex 4 Z-coordinate {m}

FenestrationSurface:Detailed,
    P3_W01,                  !- Name
    Window,                  !- Surface Type
    Exterior Window,         !- Construction Name
    A0A751,                  !- Building Surface Name
    ,                        !- Outside Boundary Condition Object
    ,                        !- View Factor to Ground
    ,                        !- Frame and Divider Name
    ,                        !- Multiplier
    4,                       !- Number of Vertices
    -1.470000000000,         !- Vertex 1 X-coordinate {m}
    0.000000000000,          !- Vertex 1 Y-coordinate {m}
    7.800000000000,          !- Vertex 1 Z-coordinate {m}
    -1.470000000000,         !- Vertex 2 X-coordinate {m}
    0.000000000000,          !- Vertex 2 Y-coordinate {m}
    6.800000000000,          !- Vertex 2 Z-coordinate {m}
    -2.870000000000,         !- Vertex 3 X-coordinate {m}
    0.000000000000,          !- Vertex 3 Y-coordinate {m}
    6.800000000000,          !- Vertex 3 Z-coordinate {m}
    -2.870000000000,         !- Vertex 4 X-coordinate {m}
    0.000000000000,          !- Vertex 4 Y-coordinate {m}
    7.800000000000;          !- Vertex 4 Z-coordinate {m}

FenestrationSurface:Detailed,
    P3_W02,                  !- Name
    Window,                  !- Surface Type
    Exterior Window,         !- Construction Name
    A0A751,                  !- Building Surface Name
    ,                        !- Outside Boundary Condition Object
    ,                        !- View Factor to Ground
    ,                        !- Frame and Divider Name
    ,                        !- Multiplier
    4,                       !- Number of Vertices
    -4.550000000000,         !- Vertex 1 X-coordinate {m}
    0.000000000000,          !- Vertex 1 Y-coordinate {m}
    7.800000000000,          !- Vertex 1 Z-coordinate {m}
    -4.550000000000,         !- Vertex 2 X-coordinate {m}
    0.000000000000,          !- Vertex 2 Y-coordinate {m}
    6.800000000000,          !- Vertex 2 Z-coordinate {m}
    -5.950000000000,         !- Vertex 3 X-coordinate {m}
    0.000000000000,          !- Vertex 3 Y-coordinate {m}
    6.800000000000,          !- Vertex 3 Z-coordinate {m}
    -5.950000000000,         !- Vertex 4 X-coordinate {m}
    0.000000000000,          !- Vertex 4 Y-coordinate {m}
    7.800000000000;          !- Vertex 4 Z-coordinate {m}

FenestrationSurface:Detailed,
    P3_W03,                  !- Name
    Window,                  !- Surface Type
    Exterior Window,         !- Construction Name
    78104E,                  !- Building Surface Name
    ,                        !- Outside Boundary Condition Object
    ,                        !- View Factor to Ground
    ,                        !- Frame and Divider Name
    ,                        !- Multiplier
    4,                       !- Number of Vertices
    -2.050000000000,         !- Vertex 1 X-coordinate {m}
    -6.500000000000,         !- Vertex 1 Y-coordinate {m}
    7.800000000000,          !- Vertex 1 Z-coordinate {m}
    -2.050000000000,         !- Vertex 2 X-coordinate {m}
    -6.500000000000,         !- Vertex 2 Y-coordinate {m}
    6.800000000000,          !- Vertex 2 Z-coordinate {m}
    -0.650000000000,         !- Vertex 3 X-coordinate {m}
    -6.500000000000,         !- Vertex 3 Y-coordinate {m}
    6.800000000000,          !- Vertex 3 Z-coordinate {m}
    -0.650000000000,         !- Vertex 4 X-coordinate {m}
    -6.500000000000,         !- Vertex 4 Y-coordinate {m}
    7.800000000000;          !- Vertex 4 Z-coordinate {m}

FenestrationSurface:Detailed,
    P3_W05 (Kitchen),        !- Name
    Window,                  !- Surface Type
    Exterior Window,         !- Construction Name
    78104E,                  !- Building Surface Name
    ,                        !- Outside Boundary Condition Object
    ,                        !- View Factor to Ground
    ,                        !- Frame and Divider Name
    ,                        !- Multiplier
    4,                       !- Number of Vertices
    -6.050000000000,         !- Vertex 1 X-coordinate {m}
    -6.500000000000,         !- Vertex 1 Y-coordinate {m}
    7.800000000000,          !- Vertex 1 Z-coordinate {m}
    -6.050000000000,         !- Vertex 2 X-coordinate {m}
    -6.500000000000,         !- Vertex 2 Y-coordinate {m}
    6.800000000000,          !- Vertex 2 Z-coordinate {m}
    -4.650000000000,         !- Vertex 3 X-coordinate {m}
    -6.500000000000,         !- Vertex 3 Y-coordinate {m}
    6.800000000000,          !- Vertex 3 Z-coordinate {m}
    -4.650000000000,         !- Vertex 4 X-coordinate {m}
    -6.500000000000,         !- Vertex 4 Y-coordinate {m}
    7.800000000000;          !- Vertex 4 Z-coordinate {m}

FenestrationSurface:Detailed,
    P3_W07,                  !- Name
    Window,                  !- Surface Type
    Exterior Window,         !- Construction Name
    2A736B,                  !- Building Surface Name
    ,                        !- Outside Boundary Condition Object
    ,                        !- View Factor to Ground
    ,                        !- Frame and Divider Name
    ,                        !- Multiplier
    4,                       !- Number of Vertices
    -9.850000000000,         !- Vertex 1 X-coordinate {m}
    0.000000000000,          !- Vertex 1 Y-coordinate {m}
    7.800000000000,          !- Vertex 1 Z-coordinate {m}
    -9.850000000000,         !- Vertex 2 X-coordinate {m}
    0.000000000000,          !- Vertex 2 Y-coordinate {m}
    6.800000000000,          !- Vertex 2 Z-coordinate {m}
    -11.250000000000,        !- Vertex 3 X-coordinate {m}
    0.000000000000,          !- Vertex 3 Y-coordinate {m}
    6.800000000000,          !- Vertex 3 Z-coordinate {m}
    -11.250000000000,        !- Vertex 4 X-coordinate {m}
    0.000000000000,          !- Vertex 4 Y-coordinate {m}
    7.800000000000;          !- Vertex 4 Z-coordinate {m}

FenestrationSurface:Detailed,
    P3_W06,                  !- Name
    Window,                  !- Surface Type
    Exterior Window,         !- Construction Name
    2A736B,                  !- Building Surface Name
    ,                        !- Outside Boundary Condition Object
    ,                        !- View Factor to Ground
    ,                        !- Frame and Divider Name
    ,                        !- Multiplier
    4,                       !- Number of Vertices
    -12.930000000000,        !- Vertex 1 X-coordinate {m}
    0.000000000000,          !- Vertex 1 Y-coordinate {m}
    7.800000000000,          !- Vertex 1 Z-coordinate {m}
    -12.930000000000,        !- Vertex 2 X-coordinate {m}
    0.000000000000,          !- Vertex 2 Y-coordinate {m}
    6.800000000000,          !- Vertex 2 Z-coordinate {m}
    -14.330000000000,        !- Vertex 3 X-coordinate {m}
    0.000000000000,          !- Vertex 3 Y-coordinate {m}
    6.800000000000,          !- Vertex 3 Z-coordinate {m}
    -14.330000000000,        !- Vertex 4 X-coordinate {m}
    0.000000000000,          !- Vertex 4 Y-coordinate {m}
    7.800000000000;          !- Vertex 4 Z-coordinate {m}

FenestrationSurface:Detailed,
    P3_W10,                  !- Name
    Window,                  !- Surface Type
    Exterior Window,         !- Construction Name
    E4DAA6,                  !- Building Surface Name
    ,                        !- Outside Boundary Condition Object
    ,                        !- View Factor to Ground
    ,                        !- Frame and Divider Name
    ,                        !- Multiplier
    4,                       !- Number of Vertices
    -15.250000000000,        !- Vertex 1 X-coordinate {m}
    -6.500000000000,         !- Vertex 1 Y-coordinate {m}
    7.800000000000,          !- Vertex 1 Z-coordinate {m}
    -15.250000000000,        !- Vertex 2 X-coordinate {m}
    -6.500000000000,         !- Vertex 2 Y-coordinate {m}
    6.800000000000,          !- Vertex 2 Z-coordinate {m}
    -13.850000000000,        !- Vertex 3 X-coordinate {m}
    -6.500000000000,         !- Vertex 3 Y-coordinate {m}
    6.800000000000,          !- Vertex 3 Z-coordinate {m}
    -13.850000000000,        !- Vertex 4 X-coordinate {m}
    -6.500000000000,         !- Vertex 4 Y-coordinate {m}
    7.800000000000;          !- Vertex 4 Z-coordinate {m}

FenestrationSurface:Detailed,
    P3_W08 (Kitchen),        !- Name
    Window,                  !- Surface Type
    Exterior Window,         !- Construction Name
    E4DAA6,                  !- Building Surface Name
    ,                        !- Outside Boundary Condition Object
    ,                        !- View Factor to Ground
    ,                        !- Frame and Divider Name
    ,                        !- Multiplier
    4,                       !- Number of Vertices
    -11.050000000000,        !- Vertex 1 X-coordinate {m}
    -6.500000000000,         !- Vertex 1 Y-coordinate {m}
    7.800000000000,          !- Vertex 1 Z-coordinate {m}
    -11.050000000000,        !- Vertex 2 X-coordinate {m}
    -6.500000000000,         !- Vertex 2 Y-coordinate {m}
    6.800000000000,          !- Vertex 2 Z-coordinate {m}
    -9.650000000000,         !- Vertex 3 X-coordinate {m}
    -6.500000000000,         !- Vertex 3 Y-coordinate {m}
    6.800000000000,          !- Vertex 3 Z-coordinate {m}
    -9.650000000000,         !- Vertex 4 X-coordinate {m}
    -6.500000000000,         !- Vertex 4 Y-coordinate {m}
    7.800000000000;          !- Vertex 4 Z-coordinate {m}

FenestrationSurface:Detailed,
    P3_W11,                  !- Name
    Window,                  !- Surface Type
    Exterior Window,         !- Construction Name
    E40F11,                  !- Building Surface Name
    ,                        !- Outside Boundary Condition Object
    ,                        !- View Factor to Ground
    ,                        !- Frame and Divider Name
    ,                        !- Multiplier
    4,                       !- Number of Vertices
    -17.270000000000,        !- Vertex 1 X-coordinate {m}
    0.000000000000,          !- Vertex 1 Y-coordinate {m}
    7.800000000000,          !- Vertex 1 Z-coordinate {m}
    -17.270000000000,        !- Vertex 2 X-coordinate {m}
    0.000000000000,          !- Vertex 2 Y-coordinate {m}
    6.800000000000,          !- Vertex 2 Z-coordinate {m}
    -18.670000000000,        !- Vertex 3 X-coordinate {m}
    0.000000000000,          !- Vertex 3 Y-coordinate {m}
    6.800000000000,          !- Vertex 3 Z-coordinate {m}
    -18.670000000000,        !- Vertex 4 X-coordinate {m}
    0.000000000000,          !- Vertex 4 Y-coordinate {m}
    7.800000000000;          !- Vertex 4 Z-coordinate {m}

FenestrationSurface:Detailed,
    P3_W12,                  !- Name
    Window,                  !- Surface Type
    Exterior Window,         !- Construction Name
    E40F11,                  !- Building Surface Name
    ,                        !- Outside Boundary Condition Object
    ,                        !- View Factor to Ground
    ,                        !- Frame and Divider Name
    ,                        !- Multiplier
    4,                       !- Number of Vertices
    -20.350000000000,        !- Vertex 1 X-coordinate {m}
    0.000000000000,          !- Vertex 1 Y-coordinate {m}
    7.800000000000,          !- Vertex 1 Z-coordinate {m}
    -20.350000000000,        !- Vertex 2 X-coordinate {m}
    0.000000000000,          !- Vertex 2 Y-coordinate {m}
    6.800000000000,          !- Vertex 2 Z-coordinate {m}
    -21.750000000000,        !- Vertex 3 X-coordinate {m}
    0.000000000000,          !- Vertex 3 Y-coordinate {m}
    6.800000000000,          !- Vertex 3 Z-coordinate {m}
    -21.750000000000,        !- Vertex 4 X-coordinate {m}
    0.000000000000,          !- Vertex 4 Y-coordinate {m}
    7.800000000000;          !- Vertex 4 Z-coordinate {m}

FenestrationSurface:Detailed,
    P3_W13,                  !- Name
    Window,                  !- Surface Type
    Exterior Window,         !- Construction Name
    752E83,                  !- Building Surface Name
    ,                        !- Outside Boundary Condition Object
    ,                        !- View Factor to Ground
    ,                        !- Frame and Divider Name
    ,                        !- Multiplier
    4,                       !- Number of Vertices
    -17.750000000000,        !- Vertex 1 X-coordinate {m}
    -6.500000000000,         !- Vertex 1 Y-coordinate {m}
    7.800000000000,          !- Vertex 1 Z-coordinate {m}
    -17.750000000000,        !- Vertex 2 X-coordinate {m}
    -6.500000000000,         !- Vertex 2 Y-coordinate {m}
    6.800000000000,          !- Vertex 2 Z-coordinate {m}
    -16.350000000000,        !- Vertex 3 X-coordinate {m}
    -6.500000000000,         !- Vertex 3 Y-coordinate {m}
    6.800000000000,          !- Vertex 3 Z-coordinate {m}
    -16.350000000000,        !- Vertex 4 X-coordinate {m}
    -6.500000000000,         !- Vertex 4 Y-coordinate {m}
    7.800000000000;          !- Vertex 4 Z-coordinate {m}

FenestrationSurface:Detailed,
    P3_W15 (Kitchen),        !- Name
    Window,                  !- Surface Type
    Exterior Window,         !- Construction Name
    752E83,                  !- Building Surface Name
    ,                        !- Outside Boundary Condition Object
    ,                        !- View Factor to Ground
    ,                        !- Frame and Divider Name
    ,                        !- Multiplier
    4,                       !- Number of Vertices
    -21.950000000000,        !- Vertex 1 X-coordinate {m}
    -6.500000000000,         !- Vertex 1 Y-coordinate {m}
    7.800000000000,          !- Vertex 1 Z-coordinate {m}
    -21.950000000000,        !- Vertex 2 X-coordinate {m}
    -6.500000000000,         !- Vertex 2 Y-coordinate {m}
    6.800000000000,          !- Vertex 2 Z-coordinate {m}
    -20.550000000000,        !- Vertex 3 X-coordinate {m}
    -6.500000000000,         !- Vertex 3 Y-coordinate {m}
    6.800000000000,          !- Vertex 3 Z-coordinate {m}
    -20.550000000000,        !- Vertex 4 X-coordinate {m}
    -6.500000000000,         !- Vertex 4 Y-coordinate {m}
    7.800000000000;          !- Vertex 4 Z-coordinate {m}

FenestrationSurface:Detailed,
    P3_W14 (WC),             !- Name
    Window,                  !- Surface Type
    Exterior Window,         !- Construction Name
    752E83,                  !- Building Surface Name
    ,                        !- Outside Boundary Condition Object
    ,                        !- View Factor to Ground
    ,                        !- Frame and Divider Name
    ,                        !- Multiplier
    4,                       !- Number of Vertices
    -19.400000000000,        !- Vertex 1 X-coordinate {m}
    -6.500000000000,         !- Vertex 1 Y-coordinate {m}
    7.800000000000,          !- Vertex 1 Z-coordinate {m}
    -19.400000000000,        !- Vertex 2 X-coordinate {m}
    -6.500000000000,         !- Vertex 2 Y-coordinate {m}
    7.050000000000,          !- Vertex 2 Z-coordinate {m}
    -18.707669894195,        !- Vertex 3 X-coordinate {m}
    -6.500000000000,         !- Vertex 3 Y-coordinate {m}
    7.050000000000,          !- Vertex 3 Z-coordinate {m}
    -18.707669894195,        !- Vertex 4 X-coordinate {m}
    -6.500000000000,         !- Vertex 4 Y-coordinate {m}
    7.800000000000;          !- Vertex 4 Z-coordinate {m}

FenestrationSurface:Detailed,
    P4_W11,                  !- Name
    Window,                  !- Surface Type
    Exterior Window,         !- Construction Name
    4B5934,                  !- Building Surface Name
    ,                        !- Outside Boundary Condition Object
    ,                        !- View Factor to Ground
    ,                        !- Frame and Divider Name
    ,                        !- Multiplier
    4,                       !- Number of Vertices
    -17.270000000000,        !- Vertex 1 X-coordinate {m}
    0.000000000000,          !- Vertex 1 Y-coordinate {m}
    10.650000000000,         !- Vertex 1 Z-coordinate {m}
    -17.270000000000,        !- Vertex 2 X-coordinate {m}
    0.000000000000,          !- Vertex 2 Y-coordinate {m}
    9.650000000000,          !- Vertex 2 Z-coordinate {m}
    -18.670000000000,        !- Vertex 3 X-coordinate {m}
    0.000000000000,          !- Vertex 3 Y-coordinate {m}
    9.650000000000,          !- Vertex 3 Z-coordinate {m}
    -18.670000000000,        !- Vertex 4 X-coordinate {m}
    0.000000000000,          !- Vertex 4 Y-coordinate {m}
    10.650000000000;         !- Vertex 4 Z-coordinate {m}

FenestrationSurface:Detailed,
    P4_W12,                  !- Name
    Window,                  !- Surface Type
    Exterior Window,         !- Construction Name
    4B5934,                  !- Building Surface Name
    ,                        !- Outside Boundary Condition Object
    ,                        !- View Factor to Ground
    ,                        !- Frame and Divider Name
    ,                        !- Multiplier
    4,                       !- Number of Vertices
    -20.350000000000,        !- Vertex 1 X-coordinate {m}
    0.000000000000,          !- Vertex 1 Y-coordinate {m}
    10.650000000000,         !- Vertex 1 Z-coordinate {m}
    -20.350000000000,        !- Vertex 2 X-coordinate {m}
    0.000000000000,          !- Vertex 2 Y-coordinate {m}
    9.650000000000,          !- Vertex 2 Z-coordinate {m}
    -21.750000000000,        !- Vertex 3 X-coordinate {m}
    0.000000000000,          !- Vertex 3 Y-coordinate {m}
    9.650000000000,          !- Vertex 3 Z-coordinate {m}
    -21.750000000000,        !- Vertex 4 X-coordinate {m}
    0.000000000000,          !- Vertex 4 Y-coordinate {m}
    10.650000000000;         !- Vertex 4 Z-coordinate {m}

FenestrationSurface:Detailed,
    P4_W13,                  !- Name
    Window,                  !- Surface Type
    Exterior Window,         !- Construction Name
    9FC06E,                  !- Building Surface Name
    ,                        !- Outside Boundary Condition Object
    ,                        !- View Factor to Ground
    ,                        !- Frame and Divider Name
    ,                        !- Multiplier
    4,                       !- Number of Vertices
    -17.750000000000,        !- Vertex 1 X-coordinate {m}
    -6.500000000000,         !- Vertex 1 Y-coordinate {m}
    10.650000000000,         !- Vertex 1 Z-coordinate {m}
    -17.750000000000,        !- Vertex 2 X-coordinate {m}
    -6.500000000000,         !- Vertex 2 Y-coordinate {m}
    9.650000000000,          !- Vertex 2 Z-coordinate {m}
    -16.350000000000,        !- Vertex 3 X-coordinate {m}
    -6.500000000000,         !- Vertex 3 Y-coordinate {m}
    9.650000000000,          !- Vertex 3 Z-coordinate {m}
    -16.350000000000,        !- Vertex 4 X-coordinate {m}
    -6.500000000000,         !- Vertex 4 Y-coordinate {m}
    10.650000000000;         !- Vertex 4 Z-coordinate {m}

FenestrationSurface:Detailed,
    P4_W15 (Kitchen),        !- Name
    Window,                  !- Surface Type
    Exterior Window,         !- Construction Name
    9FC06E,                  !- Building Surface Name
    ,                        !- Outside Boundary Condition Object
    ,                        !- View Factor to Ground
    ,                        !- Frame and Divider Name
    ,                        !- Multiplier
    4,                       !- Number of Vertices
    -21.950000000000,        !- Vertex 1 X-coordinate {m}
    -6.500000000000,         !- Vertex 1 Y-coordinate {m}
    10.650000000000,         !- Vertex 1 Z-coordinate {m}
    -21.950000000000,        !- Vertex 2 X-coordinate {m}
    -6.500000000000,         !- Vertex 2 Y-coordinate {m}
    9.650000000000,          !- Vertex 2 Z-coordinate {m}
    -20.550000000000,        !- Vertex 3 X-coordinate {m}
    -6.500000000000,         !- Vertex 3 Y-coordinate {m}
    9.650000000000,          !- Vertex 3 Z-coordinate {m}
    -20.550000000000,        !- Vertex 4 X-coordinate {m}
    -6.500000000000,         !- Vertex 4 Y-coordinate {m}
    10.650000000000;         !- Vertex 4 Z-coordinate {m}

FenestrationSurface:Detailed,
    P4_W07,                  !- Name
    Window,                  !- Surface Type
    Exterior Window,         !- Construction Name
    45C3E7,                  !- Building Surface Name
    ,                        !- Outside Boundary Condition Object
    ,                        !- View Factor to Ground
    ,                        !- Frame and Divider Name
    ,                        !- Multiplier
    4,                       !- Number of Vertices
    -9.850000000000,         !- Vertex 1 X-coordinate {m}
    0.000000000000,          !- Vertex 1 Y-coordinate {m}
    10.650000000000,         !- Vertex 1 Z-coordinate {m}
    -9.850000000000,         !- Vertex 2 X-coordinate {m}
    0.000000000000,          !- Vertex 2 Y-coordinate {m}
    9.650000000000,          !- Vertex 2 Z-coordinate {m}
    -11.250000000000,        !- Vertex 3 X-coordinate {m}
    0.000000000000,          !- Vertex 3 Y-coordinate {m}
    9.650000000000,          !- Vertex 3 Z-coordinate {m}
    -11.250000000000,        !- Vertex 4 X-coordinate {m}
    0.000000000000,          !- Vertex 4 Y-coordinate {m}
    10.650000000000;         !- Vertex 4 Z-coordinate {m}

FenestrationSurface:Detailed,
    P4_W06,                  !- Name
    Window,                  !- Surface Type
    Exterior Window,         !- Construction Name
    45C3E7,                  !- Building Surface Name
    ,                        !- Outside Boundary Condition Object
    ,                        !- View Factor to Ground
    ,                        !- Frame and Divider Name
    ,                        !- Multiplier
    4,                       !- Number of Vertices
    -12.930000000000,        !- Vertex 1 X-coordinate {m}
    0.000000000000,          !- Vertex 1 Y-coordinate {m}
    10.650000000000,         !- Vertex 1 Z-coordinate {m}
    -12.930000000000,        !- Vertex 2 X-coordinate {m}
    0.000000000000,          !- Vertex 2 Y-coordinate {m}
    9.650000000000,          !- Vertex 2 Z-coordinate {m}
    -14.330000000000,        !- Vertex 3 X-coordinate {m}
    0.000000000000,          !- Vertex 3 Y-coordinate {m}
    9.650000000000,          !- Vertex 3 Z-coordinate {m}
    -14.330000000000,        !- Vertex 4 X-coordinate {m}
    0.000000000000,          !- Vertex 4 Y-coordinate {m}
    10.650000000000;         !- Vertex 4 Z-coordinate {m}

FenestrationSurface:Detailed,
    P4_W10,                  !- Name
    Window,                  !- Surface Type
    Exterior Window,         !- Construction Name
    B5DE06,                  !- Building Surface Name
    ,                        !- Outside Boundary Condition Object
    ,                        !- View Factor to Ground
    ,                        !- Frame and Divider Name
    ,                        !- Multiplier
    4,                       !- Number of Vertices
    -15.250000000000,        !- Vertex 1 X-coordinate {m}
    -6.500000000000,         !- Vertex 1 Y-coordinate {m}
    10.650000000000,         !- Vertex 1 Z-coordinate {m}
    -15.250000000000,        !- Vertex 2 X-coordinate {m}
    -6.500000000000,         !- Vertex 2 Y-coordinate {m}
    9.650000000000,          !- Vertex 2 Z-coordinate {m}
    -13.850000000000,        !- Vertex 3 X-coordinate {m}
    -6.500000000000,         !- Vertex 3 Y-coordinate {m}
    9.650000000000,          !- Vertex 3 Z-coordinate {m}
    -13.850000000000,        !- Vertex 4 X-coordinate {m}
    -6.500000000000,         !- Vertex 4 Y-coordinate {m}
    10.650000000000;         !- Vertex 4 Z-coordinate {m}

FenestrationSurface:Detailed,
    P4_W09 (WC),             !- Name
    Window,                  !- Surface Type
    Exterior Window,         !- Construction Name
    B5DE06,                  !- Building Surface Name
    ,                        !- Outside Boundary Condition Object
    ,                        !- View Factor to Ground
    ,                        !- Frame and Divider Name
    ,                        !- Multiplier
    4,                       !- Number of Vertices
    -12.700000000000,        !- Vertex 1 X-coordinate {m}
    -6.500000000000,         !- Vertex 1 Y-coordinate {m}
    10.650000000000,         !- Vertex 1 Z-coordinate {m}
    -12.700000000000,        !- Vertex 2 X-coordinate {m}
    -6.500000000000,         !- Vertex 2 Y-coordinate {m}
    9.900000000000,          !- Vertex 2 Z-coordinate {m}
    -12.000000000000,        !- Vertex 3 X-coordinate {m}
    -6.500000000000,         !- Vertex 3 Y-coordinate {m}
    9.900000000000,          !- Vertex 3 Z-coordinate {m}
    -12.000000000000,        !- Vertex 4 X-coordinate {m}
    -6.500000000000,         !- Vertex 4 Y-coordinate {m}
    10.650000000000;         !- Vertex 4 Z-coordinate {m}

FenestrationSurface:Detailed,
    P4_W08 (Kitchen),        !- Name
    Window,                  !- Surface Type
    Exterior Window,         !- Construction Name
    B5DE06,                  !- Building Surface Name
    ,                        !- Outside Boundary Condition Object
    ,                        !- View Factor to Ground
    ,                        !- Frame and Divider Name
    ,                        !- Multiplier
    4,                       !- Number of Vertices
    -11.050000000000,        !- Vertex 1 X-coordinate {m}
    -6.500000000000,         !- Vertex 1 Y-coordinate {m}
    10.650000000000,         !- Vertex 1 Z-coordinate {m}
    -11.050000000000,        !- Vertex 2 X-coordinate {m}
    -6.500000000000,         !- Vertex 2 Y-coordinate {m}
    9.650000000000,          !- Vertex 2 Z-coordinate {m}
    -9.650000000000,         !- Vertex 3 X-coordinate {m}
    -6.500000000000,         !- Vertex 3 Y-coordinate {m}
    9.650000000000,          !- Vertex 3 Z-coordinate {m}
    -9.650000000000,         !- Vertex 4 X-coordinate {m}
    -6.500000000000,         !- Vertex 4 Y-coordinate {m}
    10.650000000000;         !- Vertex 4 Z-coordinate {m}

FenestrationSurface:Detailed,
    P4_W17,                  !- Name
    Window,                  !- Surface Type
    Exterior Window,         !- Construction Name
    194C57,                  !- Building Surface Name
    ,                        !- Outside Boundary Condition Object
    ,                        !- View Factor to Ground
    ,                        !- Frame and Divider Name
    ,                        !- Multiplier
    4,                       !- Number of Vertices
    -25.650000000000,        !- Vertex 1 X-coordinate {m}
    0.000000000000,          !- Vertex 1 Y-coordinate {m}
    10.650000000000,         !- Vertex 1 Z-coordinate {m}
    -25.650000000000,        !- Vertex 2 X-coordinate {m}
    0.000000000000,          !- Vertex 2 Y-coordinate {m}
    9.650000000000,          !- Vertex 2 Z-coordinate {m}
    -27.050000000000,        !- Vertex 3 X-coordinate {m}
    0.000000000000,          !- Vertex 3 Y-coordinate {m}
    9.650000000000,          !- Vertex 3 Z-coordinate {m}
    -27.050000000000,        !- Vertex 4 X-coordinate {m}
    0.000000000000,          !- Vertex 4 Y-coordinate {m}
    10.650000000000;         !- Vertex 4 Z-coordinate {m}

FenestrationSurface:Detailed,
    P4_W16,                  !- Name
    Window,                  !- Surface Type
    Exterior Window,         !- Construction Name
    194C57,                  !- Building Surface Name
    ,                        !- Outside Boundary Condition Object
    ,                        !- View Factor to Ground
    ,                        !- Frame and Divider Name
    ,                        !- Multiplier
    4,                       !- Number of Vertices
    -28.730000000000,        !- Vertex 1 X-coordinate {m}
    0.000000000000,          !- Vertex 1 Y-coordinate {m}
    10.650000000000,         !- Vertex 1 Z-coordinate {m}
    -28.730000000000,        !- Vertex 2 X-coordinate {m}
    0.000000000000,          !- Vertex 2 Y-coordinate {m}
    9.650000000000,          !- Vertex 2 Z-coordinate {m}
    -30.130000000000,        !- Vertex 3 X-coordinate {m}
    0.000000000000,          !- Vertex 3 Y-coordinate {m}
    9.650000000000,          !- Vertex 3 Z-coordinate {m}
    -30.130000000000,        !- Vertex 4 X-coordinate {m}
    0.000000000000,          !- Vertex 4 Y-coordinate {m}
    10.650000000000;         !- Vertex 4 Z-coordinate {m}

FenestrationSurface:Detailed,
    P4_W20,                  !- Name
    Window,                  !- Surface Type
    Exterior Window,         !- Construction Name
    CC643C,                  !- Building Surface Name
    ,                        !- Outside Boundary Condition Object
    ,                        !- View Factor to Ground
    ,                        !- Frame and Divider Name
    ,                        !- Multiplier
    4,                       !- Number of Vertices
    -31.050000000000,        !- Vertex 1 X-coordinate {m}
    -6.500000000000,         !- Vertex 1 Y-coordinate {m}
    10.650000000000,         !- Vertex 1 Z-coordinate {m}
    -31.050000000000,        !- Vertex 2 X-coordinate {m}
    -6.500000000000,         !- Vertex 2 Y-coordinate {m}
    9.650000000000,          !- Vertex 2 Z-coordinate {m}
    -29.650000000000,        !- Vertex 3 X-coordinate {m}
    -6.500000000000,         !- Vertex 3 Y-coordinate {m}
    9.650000000000,          !- Vertex 3 Z-coordinate {m}
    -29.650000000000,        !- Vertex 4 X-coordinate {m}
    -6.500000000000,         !- Vertex 4 Y-coordinate {m}
    10.650000000000;         !- Vertex 4 Z-coordinate {m}

FenestrationSurface:Detailed,
    P4_W19 (WC),             !- Name
    Window,                  !- Surface Type
    Exterior Window,         !- Construction Name
    CC643C,                  !- Building Surface Name
    ,                        !- Outside Boundary Condition Object
    ,                        !- View Factor to Ground
    ,                        !- Frame and Divider Name
    ,                        !- Multiplier
    4,                       !- Number of Vertices
    -28.500000000000,        !- Vertex 1 X-coordinate {m}
    -6.500000000000,         !- Vertex 1 Y-coordinate {m}
    10.650000000000,         !- Vertex 1 Z-coordinate {m}
    -28.500000000000,        !- Vertex 2 X-coordinate {m}
    -6.500000000000,         !- Vertex 2 Y-coordinate {m}
    9.900000000000,          !- Vertex 2 Z-coordinate {m}
    -27.791589437423,        !- Vertex 3 X-coordinate {m}
    -6.500000000000,         !- Vertex 3 Y-coordinate {m}
    9.900000000000,          !- Vertex 3 Z-coordinate {m}
    -27.791589437423,        !- Vertex 4 X-coordinate {m}
    -6.500000000000,         !- Vertex 4 Y-coordinate {m}
    10.650000000000;         !- Vertex 4 Z-coordinate {m}

FenestrationSurface:Detailed,
    P4_W18 (Kitchen),        !- Name
    Window,                  !- Surface Type
    Exterior Window,         !- Construction Name
    CC643C,                  !- Building Surface Name
    ,                        !- Outside Boundary Condition Object
    ,                        !- View Factor to Ground
    ,                        !- Frame and Divider Name
    ,                        !- Multiplier
    4,                       !- Number of Vertices
    -26.850000000000,        !- Vertex 1 X-coordinate {m}
    -6.500000000000,         !- Vertex 1 Y-coordinate {m}
    10.650000000000,         !- Vertex 1 Z-coordinate {m}
    -26.850000000000,        !- Vertex 2 X-coordinate {m}
    -6.500000000000,         !- Vertex 2 Y-coordinate {m}
    9.650000000000,          !- Vertex 2 Z-coordinate {m}
    -25.450000000000,        !- Vertex 3 X-coordinate {m}
    -6.500000000000,         !- Vertex 3 Y-coordinate {m}
    9.650000000000,          !- Vertex 3 Z-coordinate {m}
    -25.450000000000,        !- Vertex 4 X-coordinate {m}
    -6.500000000000,         !- Vertex 4 Y-coordinate {m}
    10.650000000000;         !- Vertex 4 Z-coordinate {m}

FenestrationSurface:Detailed,
    P4_W01,                  !- Name
    Window,                  !- Surface Type
    Exterior Window,         !- Construction Name
    EE6173,                  !- Building Surface Name
    ,                        !- Outside Boundary Condition Object
    ,                        !- View Factor to Ground
    ,                        !- Frame and Divider Name
    ,                        !- Multiplier
    4,                       !- Number of Vertices
    -1.470000000000,         !- Vertex 1 X-coordinate {m}
    0.000000000000,          !- Vertex 1 Y-coordinate {m}
    10.650000000000,         !- Vertex 1 Z-coordinate {m}
    -1.470000000000,         !- Vertex 2 X-coordinate {m}
    0.000000000000,          !- Vertex 2 Y-coordinate {m}
    9.650000000000,          !- Vertex 2 Z-coordinate {m}
    -2.870000000000,         !- Vertex 3 X-coordinate {m}
    0.000000000000,          !- Vertex 3 Y-coordinate {m}
    9.650000000000,          !- Vertex 3 Z-coordinate {m}
    -2.870000000000,         !- Vertex 4 X-coordinate {m}
    0.000000000000,          !- Vertex 4 Y-coordinate {m}
    10.650000000000;         !- Vertex 4 Z-coordinate {m}

FenestrationSurface:Detailed,
    P4_W02,                  !- Name
    Window,                  !- Surface Type
    Exterior Window,         !- Construction Name
    EE6173,                  !- Building Surface Name
    ,                        !- Outside Boundary Condition Object
    ,                        !- View Factor to Ground
    ,                        !- Frame and Divider Name
    ,                        !- Multiplier
    4,                       !- Number of Vertices
    -4.550000000000,         !- Vertex 1 X-coordinate {m}
    0.000000000000,          !- Vertex 1 Y-coordinate {m}
    10.650000000000,         !- Vertex 1 Z-coordinate {m}
    -4.550000000000,         !- Vertex 2 X-coordinate {m}
    0.000000000000,          !- Vertex 2 Y-coordinate {m}
    9.650000000000,          !- Vertex 2 Z-coordinate {m}
    -5.950000000000,         !- Vertex 3 X-coordinate {m}
    0.000000000000,          !- Vertex 3 Y-coordinate {m}
    9.650000000000,          !- Vertex 3 Z-coordinate {m}
    -5.950000000000,         !- Vertex 4 X-coordinate {m}
    0.000000000000,          !- Vertex 4 Y-coordinate {m}
    10.650000000000;         !- Vertex 4 Z-coordinate {m}

FenestrationSurface:Detailed,
    P4_W03,                  !- Name
    Window,                  !- Surface Type
    Exterior Window,         !- Construction Name
    F917BA,                  !- Building Surface Name
    ,                        !- Outside Boundary Condition Object
    ,                        !- View Factor to Ground
    ,                        !- Frame and Divider Name
    ,                        !- Multiplier
    4,                       !- Number of Vertices
    -1.950000000000,         !- Vertex 1 X-coordinate {m}
    -6.500000000000,         !- Vertex 1 Y-coordinate {m}
    10.650000000000,         !- Vertex 1 Z-coordinate {m}
    -1.950000000000,         !- Vertex 2 X-coordinate {m}
    -6.500000000000,         !- Vertex 2 Y-coordinate {m}
    9.650000000000,          !- Vertex 2 Z-coordinate {m}
    -0.650000000000,         !- Vertex 3 X-coordinate {m}
    -6.500000000000,         !- Vertex 3 Y-coordinate {m}
    9.650000000000,          !- Vertex 3 Z-coordinate {m}
    -0.650000000000,         !- Vertex 4 X-coordinate {m}
    -6.500000000000,         !- Vertex 4 Y-coordinate {m}
    10.650000000000;         !- Vertex 4 Z-coordinate {m}

FenestrationSurface:Detailed,
    P4_W05,                  !- Name
    Window,                  !- Surface Type
    Exterior Window,         !- Construction Name
    F917BA,                  !- Building Surface Name
    ,                        !- Outside Boundary Condition Object
    ,                        !- View Factor to Ground
    ,                        !- Frame and Divider Name
    ,                        !- Multiplier
    4,                       !- Number of Vertices
    -6.050000000000,         !- Vertex 1 X-coordinate {m}
    -6.500000000000,         !- Vertex 1 Y-coordinate {m}
    10.650000000000,         !- Vertex 1 Z-coordinate {m}
    -6.050000000000,         !- Vertex 2 X-coordinate {m}
    -6.500000000000,         !- Vertex 2 Y-coordinate {m}
    9.650000000000,          !- Vertex 2 Z-coordinate {m}
    -4.650000000000,         !- Vertex 3 X-coordinate {m}
    -6.500000000000,         !- Vertex 3 Y-coordinate {m}
    9.650000000000,          !- Vertex 3 Z-coordinate {m}
    -4.650000000000,         !- Vertex 4 X-coordinate {m}
    -6.500000000000,         !- Vertex 4 Y-coordinate {m}
    10.650000000000;         !- Vertex 4 Z-coordinate {m}

FenestrationSurface:Detailed,
    P4_W04 (WC),             !- Name
    Window,                  !- Surface Type
    Exterior Window,         !- Construction Name
    F917BA,                  !- Building Surface Name
    ,                        !- Outside Boundary Condition Object
    ,                        !- View Factor to Ground
    ,                        !- Frame and Divider Name
    ,                        !- Multiplier
    4,                       !- Number of Vertices
    -3.600000000000,         !- Vertex 1 X-coordinate {m}
    -6.500000000000,         !- Vertex 1 Y-coordinate {m}
    10.650000000000,         !- Vertex 1 Z-coordinate {m}
    -3.600000000000,         !- Vertex 2 X-coordinate {m}
    -6.500000000000,         !- Vertex 2 Y-coordinate {m}
    9.900000000000,          !- Vertex 2 Z-coordinate {m}
    -2.900000000000,         !- Vertex 3 X-coordinate {m}
    -6.500000000000,         !- Vertex 3 Y-coordinate {m}
    9.900000000000,          !- Vertex 3 Z-coordinate {m}
    -2.900000000000,         !- Vertex 4 X-coordinate {m}
    -6.500000000000,         !- Vertex 4 Y-coordinate {m}
    10.650000000000;         !- Vertex 4 Z-coordinate {m}

FenestrationSurface:Detailed,
    P5_W01,                  !- Name
    Window,                  !- Surface Type
    Exterior Window,         !- Construction Name
    127F6E,                  !- Building Surface Name
    ,                        !- Outside Boundary Condition Object
    ,                        !- View Factor to Ground
    ,                        !- Frame and Divider Name
    ,                        !- Multiplier
    4,                       !- Number of Vertices
    -1.470000000000,         !- Vertex 1 X-coordinate {m}
    0.000000000000,          !- Vertex 1 Y-coordinate {m}
    13.500000000000,         !- Vertex 1 Z-coordinate {m}
    -1.470000000000,         !- Vertex 2 X-coordinate {m}
    0.000000000000,          !- Vertex 2 Y-coordinate {m}
    12.500000000000,         !- Vertex 2 Z-coordinate {m}
    -2.870000000000,         !- Vertex 3 X-coordinate {m}
    0.000000000000,          !- Vertex 3 Y-coordinate {m}
    12.500000000000,         !- Vertex 3 Z-coordinate {m}
    -2.870000000000,         !- Vertex 4 X-coordinate {m}
    0.000000000000,          !- Vertex 4 Y-coordinate {m}
    13.500000000000;         !- Vertex 4 Z-coordinate {m}

FenestrationSurface:Detailed,
    P5_W02,                  !- Name
    Window,                  !- Surface Type
    Exterior Window,         !- Construction Name
    127F6E,                  !- Building Surface Name
    ,                        !- Outside Boundary Condition Object
    ,                        !- View Factor to Ground
    ,                        !- Frame and Divider Name
    ,                        !- Multiplier
    4,                       !- Number of Vertices
    -4.550000000000,         !- Vertex 1 X-coordinate {m}
    0.000000000000,          !- Vertex 1 Y-coordinate {m}
    13.500000000000,         !- Vertex 1 Z-coordinate {m}
    -4.550000000000,         !- Vertex 2 X-coordinate {m}
    0.000000000000,          !- Vertex 2 Y-coordinate {m}
    12.500000000000,         !- Vertex 2 Z-coordinate {m}
    -5.950000000000,         !- Vertex 3 X-coordinate {m}
    0.000000000000,          !- Vertex 3 Y-coordinate {m}
    12.500000000000,         !- Vertex 3 Z-coordinate {m}
    -5.950000000000,         !- Vertex 4 X-coordinate {m}
    0.000000000000,          !- Vertex 4 Y-coordinate {m}
    13.500000000000;         !- Vertex 4 Z-coordinate {m}

FenestrationSurface:Detailed,
    P5_W03,                  !- Name
    Window,                  !- Surface Type
    Exterior Window,         !- Construction Name
    327C39,                  !- Building Surface Name
    ,                        !- Outside Boundary Condition Object
    ,                        !- View Factor to Ground
    ,                        !- Frame and Divider Name
    ,                        !- Multiplier
    4,                       !- Number of Vertices
    -2.050000000000,         !- Vertex 1 X-coordinate {m}
    -6.500000000000,         !- Vertex 1 Y-coordinate {m}
    13.500000000000,         !- Vertex 1 Z-coordinate {m}
    -2.050000000000,         !- Vertex 2 X-coordinate {m}
    -6.500000000000,         !- Vertex 2 Y-coordinate {m}
    12.500000000000,         !- Vertex 2 Z-coordinate {m}
    -0.650000000000,         !- Vertex 3 X-coordinate {m}
    -6.500000000000,         !- Vertex 3 Y-coordinate {m}
    12.500000000000,         !- Vertex 3 Z-coordinate {m}
    -0.650000000000,         !- Vertex 4 X-coordinate {m}
    -6.500000000000,         !- Vertex 4 Y-coordinate {m}
    13.500000000000;         !- Vertex 4 Z-coordinate {m}

FenestrationSurface:Detailed,
    P5_W05 (Kitchen),        !- Name
    Window,                  !- Surface Type
    Exterior Window,         !- Construction Name
    327C39,                  !- Building Surface Name
    ,                        !- Outside Boundary Condition Object
    ,                        !- View Factor to Ground
    ,                        !- Frame and Divider Name
    ,                        !- Multiplier
    4,                       !- Number of Vertices
    -6.050000000000,         !- Vertex 1 X-coordinate {m}
    -6.500000000000,         !- Vertex 1 Y-coordinate {m}
    13.500000000000,         !- Vertex 1 Z-coordinate {m}
    -6.050000000000,         !- Vertex 2 X-coordinate {m}
    -6.500000000000,         !- Vertex 2 Y-coordinate {m}
    12.500000000000,         !- Vertex 2 Z-coordinate {m}
    -4.650000000000,         !- Vertex 3 X-coordinate {m}
    -6.500000000000,         !- Vertex 3 Y-coordinate {m}
    12.500000000000,         !- Vertex 3 Z-coordinate {m}
    -4.650000000000,         !- Vertex 4 X-coordinate {m}
    -6.500000000000,         !- Vertex 4 Y-coordinate {m}
    13.500000000000;         !- Vertex 4 Z-coordinate {m}

FenestrationSurface:Detailed,
    P5_W04 (WC),             !- Name
    Window,                  !- Surface Type
    Exterior Window,         !- Construction Name
    327C39,                  !- Building Surface Name
    ,                        !- Outside Boundary Condition Object
    ,                        !- View Factor to Ground
    ,                        !- Frame and Divider Name
    ,                        !- Multiplier
    4,                       !- Number of Vertices
    -3.600000000000,         !- Vertex 1 X-coordinate {m}
    -6.500000000000,         !- Vertex 1 Y-coordinate {m}
    13.500000000000,         !- Vertex 1 Z-coordinate {m}
    -3.600000000000,         !- Vertex 2 X-coordinate {m}
    -6.500000000000,         !- Vertex 2 Y-coordinate {m}
    12.750000000000,         !- Vertex 2 Z-coordinate {m}
    -2.900000000000,         !- Vertex 3 X-coordinate {m}
    -6.500000000000,         !- Vertex 3 Y-coordinate {m}
    12.750000000000,         !- Vertex 3 Z-coordinate {m}
    -2.900000000000,         !- Vertex 4 X-coordinate {m}
    -6.500000000000,         !- Vertex 4 Y-coordinate {m}
    13.500000000000;         !- Vertex 4 Z-coordinate {m}

FenestrationSurface:Detailed,
    P5_W07,                  !- Name
    Window,                  !- Surface Type
    Exterior Window,         !- Construction Name
    D95C7F,                  !- Building Surface Name
    ,                        !- Outside Boundary Condition Object
    ,                        !- View Factor to Ground
    ,                        !- Frame and Divider Name
    ,                        !- Multiplier
    4,                       !- Number of Vertices
    -9.850000000000,         !- Vertex 1 X-coordinate {m}
    0.000000000000,          !- Vertex 1 Y-coordinate {m}
    13.500000000000,         !- Vertex 1 Z-coordinate {m}
    -9.850000000000,         !- Vertex 2 X-coordinate {m}
    0.000000000000,          !- Vertex 2 Y-coordinate {m}
    12.500000000000,         !- Vertex 2 Z-coordinate {m}
    -11.250000000000,        !- Vertex 3 X-coordinate {m}
    0.000000000000,          !- Vertex 3 Y-coordinate {m}
    12.500000000000,         !- Vertex 3 Z-coordinate {m}
    -11.250000000000,        !- Vertex 4 X-coordinate {m}
    0.000000000000,          !- Vertex 4 Y-coordinate {m}
    13.500000000000;         !- Vertex 4 Z-coordinate {m}

FenestrationSurface:Detailed,
    P5_W06,                  !- Name
    Window,                  !- Surface Type
    Exterior Window,         !- Construction Name
    D95C7F,                  !- Building Surface Name
    ,                        !- Outside Boundary Condition Object
    ,                        !- View Factor to Ground
    ,                        !- Frame and Divider Name
    ,                        !- Multiplier
    4,                       !- Number of Vertices
    -12.930000000000,        !- Vertex 1 X-coordinate {m}
    0.000000000000,          !- Vertex 1 Y-coordinate {m}
    13.500000000000,         !- Vertex 1 Z-coordinate {m}
    -12.930000000000,        !- Vertex 2 X-coordinate {m}
    0.000000000000,          !- Vertex 2 Y-coordinate {m}
    12.500000000000,         !- Vertex 2 Z-coordinate {m}
    -14.330000000000,        !- Vertex 3 X-coordinate {m}
    0.000000000000,          !- Vertex 3 Y-coordinate {m}
    12.500000000000,         !- Vertex 3 Z-coordinate {m}
    -14.330000000000,        !- Vertex 4 X-coordinate {m}
    0.000000000000,          !- Vertex 4 Y-coordinate {m}
    13.500000000000;         !- Vertex 4 Z-coordinate {m}

FenestrationSurface:Detailed,
    P5_W10,                  !- Name
    Window,                  !- Surface Type
    Exterior Window,         !- Construction Name
    CC7F2C,                  !- Building Surface Name
    ,                        !- Outside Boundary Condition Object
    ,                        !- View Factor to Ground
    ,                        !- Frame and Divider Name
    ,                        !- Multiplier
    4,                       !- Number of Vertices
    -15.250000000000,        !- Vertex 1 X-coordinate {m}
    -6.500000000000,         !- Vertex 1 Y-coordinate {m}
    13.500000000000,         !- Vertex 1 Z-coordinate {m}
    -15.250000000000,        !- Vertex 2 X-coordinate {m}
    -6.500000000000,         !- Vertex 2 Y-coordinate {m}
    12.500000000000,         !- Vertex 2 Z-coordinate {m}
    -13.850000000000,        !- Vertex 3 X-coordinate {m}
    -6.500000000000,         !- Vertex 3 Y-coordinate {m}
    12.500000000000,         !- Vertex 3 Z-coordinate {m}
    -13.850000000000,        !- Vertex 4 X-coordinate {m}
    -6.500000000000,         !- Vertex 4 Y-coordinate {m}
    13.500000000000;         !- Vertex 4 Z-coordinate {m}

FenestrationSurface:Detailed,
    P5_W09 (WC),             !- Name
    Window,                  !- Surface Type
    Exterior Window,         !- Construction Name
    CC7F2C,                  !- Building Surface Name
    ,                        !- Outside Boundary Condition Object
    ,                        !- View Factor to Ground
    ,                        !- Frame and Divider Name
    ,                        !- Multiplier
    4,                       !- Number of Vertices
    -12.700000000000,        !- Vertex 1 X-coordinate {m}
    -6.500000000000,         !- Vertex 1 Y-coordinate {m}
    13.500000000000,         !- Vertex 1 Z-coordinate {m}
    -12.700000000000,        !- Vertex 2 X-coordinate {m}
    -6.500000000000,         !- Vertex 2 Y-coordinate {m}
    12.750000000000,         !- Vertex 2 Z-coordinate {m}
    -12.000000000000,        !- Vertex 3 X-coordinate {m}
    -6.500000000000,         !- Vertex 3 Y-coordinate {m}
    12.750000000000,         !- Vertex 3 Z-coordinate {m}
    -12.000000000000,        !- Vertex 4 X-coordinate {m}
    -6.500000000000,         !- Vertex 4 Y-coordinate {m}
    13.500000000000;         !- Vertex 4 Z-coordinate {m}

FenestrationSurface:Detailed,
    P5_W08 (Kitchen),        !- Name
    Window,                  !- Surface Type
    Exterior Window,         !- Construction Name
    CC7F2C,                  !- Building Surface Name
    ,                        !- Outside Boundary Condition Object
    ,                        !- View Factor to Ground
    ,                        !- Frame and Divider Name
    ,                        !- Multiplier
    4,                       !- Number of Vertices
    -11.050000000000,        !- Vertex 1 X-coordinate {m}
    -6.500000000000,         !- Vertex 1 Y-coordinate {m}
    13.500000000000,         !- Vertex 1 Z-coordinate {m}
    -11.050000000000,        !- Vertex 2 X-coordinate {m}
    -6.500000000000,         !- Vertex 2 Y-coordinate {m}
    12.500000000000,         !- Vertex 2 Z-coordinate {m}
    -9.650000000000,         !- Vertex 3 X-coordinate {m}
    -6.500000000000,         !- Vertex 3 Y-coordinate {m}
    12.500000000000,         !- Vertex 3 Z-coordinate {m}
    -9.650000000000,         !- Vertex 4 X-coordinate {m}
    -6.500000000000,         !- Vertex 4 Y-coordinate {m}
    13.500000000000;         !- Vertex 4 Z-coordinate {m}

FenestrationSurface:Detailed,
    P5_W11,                  !- Name
    Window,                  !- Surface Type
    Exterior Window,         !- Construction Name
    C5ED0D,                  !- Building Surface Name
    ,                        !- Outside Boundary Condition Object
    ,                        !- View Factor to Ground
    ,                        !- Frame and Divider Name
    ,                        !- Multiplier
    4,                       !- Number of Vertices
    -17.270000000000,        !- Vertex 1 X-coordinate {m}
    0.000000000000,          !- Vertex 1 Y-coordinate {m}
    13.500000000000,         !- Vertex 1 Z-coordinate {m}
    -17.270000000000,        !- Vertex 2 X-coordinate {m}
    0.000000000000,          !- Vertex 2 Y-coordinate {m}
    12.500000000000,         !- Vertex 2 Z-coordinate {m}
    -18.670000000000,        !- Vertex 3 X-coordinate {m}
    0.000000000000,          !- Vertex 3 Y-coordinate {m}
    12.500000000000,         !- Vertex 3 Z-coordinate {m}
    -18.670000000000,        !- Vertex 4 X-coordinate {m}
    0.000000000000,          !- Vertex 4 Y-coordinate {m}
    13.500000000000;         !- Vertex 4 Z-coordinate {m}

FenestrationSurface:Detailed,
    P5_W12,                  !- Name
    Window,                  !- Surface Type
    Exterior Window,         !- Construction Name
    C5ED0D,                  !- Building Surface Name
    ,                        !- Outside Boundary Condition Object
    ,                        !- View Factor to Ground
    ,                        !- Frame and Divider Name
    ,                        !- Multiplier
    4,                       !- Number of Vertices
    -20.350000000000,        !- Vertex 1 X-coordinate {m}
    0.000000000000,          !- Vertex 1 Y-coordinate {m}
    13.500000000000,         !- Vertex 1 Z-coordinate {m}
    -20.350000000000,        !- Vertex 2 X-coordinate {m}
    0.000000000000,          !- Vertex 2 Y-coordinate {m}
    12.500000000000,         !- Vertex 2 Z-coordinate {m}
    -21.750000000000,        !- Vertex 3 X-coordinate {m}
    0.000000000000,          !- Vertex 3 Y-coordinate {m}
    12.500000000000,         !- Vertex 3 Z-coordinate {m}
    -21.750000000000,        !- Vertex 4 X-coordinate {m}
    0.000000000000,          !- Vertex 4 Y-coordinate {m}
    13.500000000000;         !- Vertex 4 Z-coordinate {m}

FenestrationSurface:Detailed,
    P5_W13,                  !- Name
    Window,                  !- Surface Type
    Exterior Window,         !- Construction Name
    691CFA,                  !- Building Surface Name
    ,                        !- Outside Boundary Condition Object
    ,                        !- View Factor to Ground
    ,                        !- Frame and Divider Name
    ,                        !- Multiplier
    4,                       !- Number of Vertices
    -17.750000000000,        !- Vertex 1 X-coordinate {m}
    -6.500000000000,         !- Vertex 1 Y-coordinate {m}
    13.500000000000,         !- Vertex 1 Z-coordinate {m}
    -17.750000000000,        !- Vertex 2 X-coordinate {m}
    -6.500000000000,         !- Vertex 2 Y-coordinate {m}
    12.500000000000,         !- Vertex 2 Z-coordinate {m}
    -16.350000000000,        !- Vertex 3 X-coordinate {m}
    -6.500000000000,         !- Vertex 3 Y-coordinate {m}
    12.500000000000,         !- Vertex 3 Z-coordinate {m}
    -16.350000000000,        !- Vertex 4 X-coordinate {m}
    -6.500000000000,         !- Vertex 4 Y-coordinate {m}
    13.500000000000;         !- Vertex 4 Z-coordinate {m}

FenestrationSurface:Detailed,
    P5_W15 (Kitchen),        !- Name
    Window,                  !- Surface Type
    Exterior Window,         !- Construction Name
    691CFA,                  !- Building Surface Name
    ,                        !- Outside Boundary Condition Object
    ,                        !- View Factor to Ground
    ,                        !- Frame and Divider Name
    ,                        !- Multiplier
    4,                       !- Number of Vertices
    -21.950000000000,        !- Vertex 1 X-coordinate {m}
    -6.500000000000,         !- Vertex 1 Y-coordinate {m}
    13.500000000000,         !- Vertex 1 Z-coordinate {m}
    -21.950000000000,        !- Vertex 2 X-coordinate {m}
    -6.500000000000,         !- Vertex 2 Y-coordinate {m}
    12.500000000000,         !- Vertex 2 Z-coordinate {m}
    -20.550000000000,        !- Vertex 3 X-coordinate {m}
    -6.500000000000,         !- Vertex 3 Y-coordinate {m}
    12.500000000000,         !- Vertex 3 Z-coordinate {m}
    -20.550000000000,        !- Vertex 4 X-coordinate {m}
    -6.500000000000,         !- Vertex 4 Y-coordinate {m}
    13.500000000000;         !- Vertex 4 Z-coordinate {m}

FenestrationSurface:Detailed,
    P5_W14 (WC),             !- Name
    Window,                  !- Surface Type
    Exterior Window,         !- Construction Name
    691CFA,                  !- Building Surface Name
    ,                        !- Outside Boundary Condition Object
    ,                        !- View Factor to Ground
    ,                        !- Frame and Divider Name
    ,                        !- Multiplier
    4,                       !- Number of Vertices
    -19.400000000000,        !- Vertex 1 X-coordinate {m}
    -6.500000000000,         !- Vertex 1 Y-coordinate {m}
    13.500000000000,         !- Vertex 1 Z-coordinate {m}
    -19.407669894195,        !- Vertex 2 X-coordinate {m}
    -6.500000000000,         !- Vertex 2 Y-coordinate {m}
    12.750196219263,         !- Vertex 2 Z-coordinate {m}
    -18.707669894195,        !- Vertex 3 X-coordinate {m}
    -6.500000000000,         !- Vertex 3 Y-coordinate {m}
    12.750196219263,         !- Vertex 3 Z-coordinate {m}
    -18.700000000000,        !- Vertex 4 X-coordinate {m}
    -6.500000000000,         !- Vertex 4 Y-coordinate {m}
    13.500000000000;         !- Vertex 4 Z-coordinate {m}

FenestrationSurface:Detailed,
    P5_W17,                  !- Name
    Window,                  !- Surface Type
    Exterior Window,         !- Construction Name
    703BD7,                  !- Building Surface Name
    ,                        !- Outside Boundary Condition Object
    ,                        !- View Factor to Ground
    ,                        !- Frame and Divider Name
    ,                        !- Multiplier
    4,                       !- Number of Vertices
    -25.650000000000,        !- Vertex 1 X-coordinate {m}
    0.000000000000,          !- Vertex 1 Y-coordinate {m}
    13.500000000000,         !- Vertex 1 Z-coordinate {m}
    -25.650000000000,        !- Vertex 2 X-coordinate {m}
    0.000000000000,          !- Vertex 2 Y-coordinate {m}
    12.500000000000,         !- Vertex 2 Z-coordinate {m}
    -27.050000000000,        !- Vertex 3 X-coordinate {m}
    0.000000000000,          !- Vertex 3 Y-coordinate {m}
    12.500000000000,         !- Vertex 3 Z-coordinate {m}
    -27.050000000000,        !- Vertex 4 X-coordinate {m}
    0.000000000000,          !- Vertex 4 Y-coordinate {m}
    13.500000000000;         !- Vertex 4 Z-coordinate {m}

FenestrationSurface:Detailed,
    P5_W16,                  !- Name
    Window,                  !- Surface Type
    Exterior Window,         !- Construction Name
    703BD7,                  !- Building Surface Name
    ,                        !- Outside Boundary Condition Object
    ,                        !- View Factor to Ground
    ,                        !- Frame and Divider Name
    ,                        !- Multiplier
    4,                       !- Number of Vertices
    -28.730000000000,        !- Vertex 1 X-coordinate {m}
    0.000000000000,          !- Vertex 1 Y-coordinate {m}
    13.500000000000,         !- Vertex 1 Z-coordinate {m}
    -28.730000000000,        !- Vertex 2 X-coordinate {m}
    0.000000000000,          !- Vertex 2 Y-coordinate {m}
    12.500000000000,         !- Vertex 2 Z-coordinate {m}
    -30.130000000000,        !- Vertex 3 X-coordinate {m}
    0.000000000000,          !- Vertex 3 Y-coordinate {m}
    12.500000000000,         !- Vertex 3 Z-coordinate {m}
    -30.130000000000,        !- Vertex 4 X-coordinate {m}
    0.000000000000,          !- Vertex 4 Y-coordinate {m}
    13.500000000000;         !- Vertex 4 Z-coordinate {m}

FenestrationSurface:Detailed,
    P5_W20,                  !- Name
    Window,                  !- Surface Type
    Exterior Window,         !- Construction Name
    409EA8,                  !- Building Surface Name
    ,                        !- Outside Boundary Condition Object
    ,                        !- View Factor to Ground
    ,                        !- Frame and Divider Name
    ,                        !- Multiplier
    4,                       !- Number of Vertices
    -31.050000000000,        !- Vertex 1 X-coordinate {m}
    -6.500000000000,         !- Vertex 1 Y-coordinate {m}
    13.500000000000,         !- Vertex 1 Z-coordinate {m}
    -31.050000000000,        !- Vertex 2 X-coordinate {m}
    -6.500000000000,         !- Vertex 2 Y-coordinate {m}
    12.500000000000,         !- Vertex 2 Z-coordinate {m}
    -29.650000000000,        !- Vertex 3 X-coordinate {m}
    -6.500000000000,         !- Vertex 3 Y-coordinate {m}
    12.500000000000,         !- Vertex 3 Z-coordinate {m}
    -29.650000000000,        !- Vertex 4 X-coordinate {m}
    -6.500000000000,         !- Vertex 4 Y-coordinate {m}
    13.500000000000;         !- Vertex 4 Z-coordinate {m}

FenestrationSurface:Detailed,
    P5_W19 (WC),             !- Name
    Window,                  !- Surface Type
    Exterior Window,         !- Construction Name
    409EA8,                  !- Building Surface Name
    ,                        !- Outside Boundary Condition Object
    ,                        !- View Factor to Ground
    ,                        !- Frame and Divider Name
    ,                        !- Multiplier
    4,                       !- Number of Vertices
    -28.500000000000,        !- Vertex 1 X-coordinate {m}
    -6.500000000000,         !- Vertex 1 Y-coordinate {m}
    13.500000000000,         !- Vertex 1 Z-coordinate {m}
    -28.491589437423,        !- Vertex 2 X-coordinate {m}
    -6.500000000000,         !- Vertex 2 Y-coordinate {m}
    12.750235977494,         !- Vertex 2 Z-coordinate {m}
    -27.791589437423,        !- Vertex 3 X-coordinate {m}
    -6.500000000000,         !- Vertex 3 Y-coordinate {m}
    12.750235977494,         !- Vertex 3 Z-coordinate {m}
    -27.800000000000,        !- Vertex 4 X-coordinate {m}
    -6.500000000000,         !- Vertex 4 Y-coordinate {m}
    13.500000000000;         !- Vertex 4 Z-coordinate {m}

FenestrationSurface:Detailed,
    P5_W18 (Kitchen),        !- Name
    Window,                  !- Surface Type
    Exterior Window,         !- Construction Name
    409EA8,                  !- Building Surface Name
    ,                        !- Outside Boundary Condition Object
    ,                        !- View Factor to Ground
    ,                        !- Frame and Divider Name
    ,                        !- Multiplier
    4,                       !- Number of Vertices
    -26.850000000000,        !- Vertex 1 X-coordinate {m}
    -6.500000000000,         !- Vertex 1 Y-coordinate {m}
    13.500000000000,         !- Vertex 1 Z-coordinate {m}
    -26.850000000000,        !- Vertex 2 X-coordinate {m}
    -6.500000000000,         !- Vertex 2 Y-coordinate {m}
    12.500000000000,         !- Vertex 2 Z-coordinate {m}
    -25.450000000000,        !- Vertex 3 X-coordinate {m}
    -6.500000000000,         !- Vertex 3 Y-coordinate {m}
    12.500000000000,         !- Vertex 3 Z-coordinate {m}
    -25.450000000000,        !- Vertex 4 X-coordinate {m}
    -6.500000000000,         !- Vertex 4 Y-coordinate {m}
    13.500000000000;         !- Vertex 4 Z-coordinate {m}

FenestrationSurface:Detailed,
    AE9883,                  !- Name
    Door,                    !- Surface Type
    Exterior Door,           !- Construction Name
    6B6F44,                  !- Building Surface Name
    ,                        !- Outside Boundary Condition Object
    ,                        !- View Factor to Ground
    ,                        !- Frame and Divider Name
    ,                        !- Multiplier
    4,                       !- Number of Vertices
    -7.450000000000,         !- Vertex 1 X-coordinate {m}
    -0.600000000000,         !- Vertex 1 Y-coordinate {m}
    2.100000000000,          !- Vertex 1 Z-coordinate {m}
    -7.450000000000,         !- Vertex 2 X-coordinate {m}
    -0.600000000000,         !- Vertex 2 Y-coordinate {m}
    0.000000000000,          !- Vertex 2 Z-coordinate {m}
    -8.350000000000,         !- Vertex 3 X-coordinate {m}
    -0.600000000000,         !- Vertex 3 Y-coordinate {m}
    0.000000000000,          !- Vertex 3 Z-coordinate {m}
    -8.350000000000,         !- Vertex 4 X-coordinate {m}
    -0.600000000000,         !- Vertex 4 Y-coordinate {m}
    2.100000000000;          !- Vertex 4 Z-coordinate {m}

FenestrationSurface:Detailed,
    D49547,                  !- Name
    Door,                    !- Surface Type
    Exterior Door,           !- Construction Name
    1B2172,                  !- Building Surface Name
    ,                        !- Outside Boundary Condition Object
    ,                        !- View Factor to Ground
    ,                        !- Frame and Divider Name
    ,                        !- Multiplier
    4,                       !- Number of Vertices
    -23.250000000000,        !- Vertex 1 X-coordinate {m}
    -0.600000000000,         !- Vertex 1 Y-coordinate {m}
    2.100000000000,          !- Vertex 1 Z-coordinate {m}
    -23.250000000000,        !- Vertex 2 X-coordinate {m}
    -0.600000000000,         !- Vertex 2 Y-coordinate {m}
    0.000000000000,          !- Vertex 2 Z-coordinate {m}
    -24.150000000000,        !- Vertex 3 X-coordinate {m}
    -0.600000000000,         !- Vertex 3 Y-coordinate {m}
    0.000000000000,          !- Vertex 3 Z-coordinate {m}
    -24.150000000000,        !- Vertex 4 X-coordinate {m}
    -0.600000000000,         !- Vertex 4 Y-coordinate {m}
    2.100000000000;          !- Vertex 4 Z-coordinate {m}

FenestrationSurface:Detailed,
    A0F853,                  !- Name
    Window,                  !- Surface Type
    Exterior Window,         !- Construction Name
    268945,                  !- Building Surface Name
    ,                        !- Outside Boundary Condition Object
    ,                        !- View Factor to Ground
    ,                        !- Frame and Divider Name
    ,                        !- Multiplier
    4,                       !- Number of Vertices
    -7.300000000000,         !- Vertex 1 X-coordinate {m}
    -0.600000000000,         !- Vertex 1 Y-coordinate {m}
    10.650000000000,         !- Vertex 1 Z-coordinate {m}
    -7.300000000000,         !- Vertex 2 X-coordinate {m}
    -0.600000000000,         !- Vertex 2 Y-coordinate {m}
    9.650000000000,          !- Vertex 2 Z-coordinate {m}
    -8.500000000000,         !- Vertex 3 X-coordinate {m}
    -0.600000000000,         !- Vertex 3 Y-coordinate {m}
    9.650000000000,          !- Vertex 3 Z-coordinate {m}
    -8.500000000000,         !- Vertex 4 X-coordinate {m}
    -0.600000000000,         !- Vertex 4 Y-coordinate {m}
    10.650000000000;         !- Vertex 4 Z-coordinate {m}

FenestrationSurface:Detailed,
    A4106E,                  !- Name
    Window,                  !- Surface Type
    Exterior Window,         !- Construction Name
    E94494,                  !- Building Surface Name
    ,                        !- Outside Boundary Condition Object
    ,                        !- View Factor to Ground
    ,                        !- Frame and Divider Name
    ,                        !- Multiplier
    4,                       !- Number of Vertices
    -7.300000000000,         !- Vertex 1 X-coordinate {m}
    -0.600000000000,         !- Vertex 1 Y-coordinate {m}
    13.500000000000,         !- Vertex 1 Z-coordinate {m}
    -7.300000000000,         !- Vertex 2 X-coordinate {m}
    -0.600000000000,         !- Vertex 2 Y-coordinate {m}
    12.500000000000,         !- Vertex 2 Z-coordinate {m}
    -8.500000000000,         !- Vertex 3 X-coordinate {m}
    -0.600000000000,         !- Vertex 3 Y-coordinate {m}
    12.500000000000,         !- Vertex 3 Z-coordinate {m}
    -8.500000000000,         !- Vertex 4 X-coordinate {m}
    -0.600000000000,         !- Vertex 4 Y-coordinate {m}
    13.500000000000;         !- Vertex 4 Z-coordinate {m}

FenestrationSurface:Detailed,
    DCE510,                  !- Name
    Window,                  !- Surface Type
    Exterior Window,         !- Construction Name
    4C25A0,                  !- Building Surface Name
    ,                        !- Outside Boundary Condition Object
    ,                        !- View Factor to Ground
    ,                        !- Frame and Divider Name
    ,                        !- Multiplier
    4,                       !- Number of Vertices
    -23.100000000000,        !- Vertex 1 X-coordinate {m}
    -0.600000000000,         !- Vertex 1 Y-coordinate {m}
    4.950000000000,          !- Vertex 1 Z-coordinate {m}
    -23.100000000000,        !- Vertex 2 X-coordinate {m}
    -0.600000000000,         !- Vertex 2 Y-coordinate {m}
    3.950000000000,          !- Vertex 2 Z-coordinate {m}
    -24.300000000000,        !- Vertex 3 X-coordinate {m}
    -0.600000000000,         !- Vertex 3 Y-coordinate {m}
    3.950000000000,          !- Vertex 3 Z-coordinate {m}
    -24.300000000000,        !- Vertex 4 X-coordinate {m}
    -0.600000000000,         !- Vertex 4 Y-coordinate {m}
    4.950000000000;          !- Vertex 4 Z-coordinate {m}

FenestrationSurface:Detailed,
    A21157,                  !- Name
    Window,                  !- Surface Type
    Exterior Window,         !- Construction Name
    1DCE8F,                  !- Building Surface Name
    ,                        !- Outside Boundary Condition Object
    ,                        !- View Factor to Ground
    ,                        !- Frame and Divider Name
    ,                        !- Multiplier
    4,                       !- Number of Vertices
    -23.100000000000,        !- Vertex 1 X-coordinate {m}
    -0.600000000000,         !- Vertex 1 Y-coordinate {m}
    7.800000000000,          !- Vertex 1 Z-coordinate {m}
    -23.100000000000,        !- Vertex 2 X-coordinate {m}
    -0.600000000000,         !- Vertex 2 Y-coordinate {m}
    6.800000000000,          !- Vertex 2 Z-coordinate {m}
    -24.300000000000,        !- Vertex 3 X-coordinate {m}
    -0.600000000000,         !- Vertex 3 Y-coordinate {m}
    6.800000000000,          !- Vertex 3 Z-coordinate {m}
    -24.300000000000,        !- Vertex 4 X-coordinate {m}
    -0.600000000000,         !- Vertex 4 Y-coordinate {m}
    7.800000000000;          !- Vertex 4 Z-coordinate {m}

FenestrationSurface:Detailed,
    8493FA,                  !- Name
    Window,                  !- Surface Type
    Exterior Window,         !- Construction Name
    EC8A4C,                  !- Building Surface Name
    ,                        !- Outside Boundary Condition Object
    ,                        !- View Factor to Ground
    ,                        !- Frame and Divider Name
    ,                        !- Multiplier
    4,                       !- Number of Vertices
    -23.100000000000,        !- Vertex 1 X-coordinate {m}
    -0.600000000000,         !- Vertex 1 Y-coordinate {m}
    10.650000000000,         !- Vertex 1 Z-coordinate {m}
    -23.100000000000,        !- Vertex 2 X-coordinate {m}
    -0.600000000000,         !- Vertex 2 Y-coordinate {m}
    9.650000000000,          !- Vertex 2 Z-coordinate {m}
    -24.300000000000,        !- Vertex 3 X-coordinate {m}
    -0.600000000000,         !- Vertex 3 Y-coordinate {m}
    9.650000000000,          !- Vertex 3 Z-coordinate {m}
    -24.300000000000,        !- Vertex 4 X-coordinate {m}
    -0.600000000000,         !- Vertex 4 Y-coordinate {m}
    10.650000000000;         !- Vertex 4 Z-coordinate {m}

FenestrationSurface:Detailed,
    65EB74,                  !- Name
    Window,                  !- Surface Type
    Exterior Window,         !- Construction Name
    282854,                  !- Building Surface Name
    ,                        !- Outside Boundary Condition Object
    ,                        !- View Factor to Ground
    ,                        !- Frame and Divider Name
    ,                        !- Multiplier
    4,                       !- Number of Vertices
    -23.100000000000,        !- Vertex 1 X-coordinate {m}
    -0.600000000000,         !- Vertex 1 Y-coordinate {m}
    13.500000000000,         !- Vertex 1 Z-coordinate {m}
    -23.100000000000,        !- Vertex 2 X-coordinate {m}
    -0.600000000000,         !- Vertex 2 Y-coordinate {m}
    12.500000000000,         !- Vertex 2 Z-coordinate {m}
    -24.300000000000,        !- Vertex 3 X-coordinate {m}
    -0.600000000000,         !- Vertex 3 Y-coordinate {m}
    12.500000000000,         !- Vertex 3 Z-coordinate {m}
    -24.300000000000,        !- Vertex 4 X-coordinate {m}
    -0.600000000000,         !- Vertex 4 Y-coordinate {m}
    13.500000000000;         !- Vertex 4 Z-coordinate {m}

FenestrationSurface:Detailed,
    EEAD33,                  !- Name
    Window,                  !- Surface Type
    Exterior Window,         !- Construction Name
    F1FB61,                  !- Building Surface Name
    ,                        !- Outside Boundary Condition Object
    ,                        !- View Factor to Ground
    ,                        !- Frame and Divider Name
    ,                        !- Multiplier
    4,                       !- Number of Vertices
    -7.353842526482,         !- Vertex 1 X-coordinate {m}
    -0.600000000000,         !- Vertex 1 Y-coordinate {m}
    4.807717319770,          !- Vertex 1 Z-coordinate {m}
    -7.353842526482,         !- Vertex 2 X-coordinate {m}
    -0.600000000000,         !- Vertex 2 Y-coordinate {m}
    3.807717319770,          !- Vertex 2 Z-coordinate {m}
    -8.553842526482,         !- Vertex 3 X-coordinate {m}
    -0.600000000000,         !- Vertex 3 Y-coordinate {m}
    3.807717319770,          !- Vertex 3 Z-coordinate {m}
    -8.553842526482,         !- Vertex 4 X-coordinate {m}
    -0.600000000000,         !- Vertex 4 Y-coordinate {m}
    4.807717319770;          !- Vertex 4 Z-coordinate {m}

FenestrationSurface:Detailed,
    BEE29E,                  !- Name
    Window,                  !- Surface Type
    Exterior Window,         !- Construction Name
    58C482,                  !- Building Surface Name
    ,                        !- Outside Boundary Condition Object
    ,                        !- View Factor to Ground
    ,                        !- Frame and Divider Name
    ,                        !- Multiplier
    4,                       !- Number of Vertices
    -7.300000000000,         !- Vertex 1 X-coordinate {m}
    -0.600000000000,         !- Vertex 1 Y-coordinate {m}
    7.800000000000,          !- Vertex 1 Z-coordinate {m}
    -7.300000000000,         !- Vertex 2 X-coordinate {m}
    -0.600000000000,         !- Vertex 2 Y-coordinate {m}
    6.800000000000,          !- Vertex 2 Z-coordinate {m}
    -8.500000000000,         !- Vertex 3 X-coordinate {m}
    -0.600000000000,         !- Vertex 3 Y-coordinate {m}
    6.800000000000,          !- Vertex 3 Z-coordinate {m}
    -8.500000000000,         !- Vertex 4 X-coordinate {m}
    -0.600000000000,         !- Vertex 4 Y-coordinate {m}
    7.800000000000;          !- Vertex 4 Z-coordinate {m}

FenestrationSurface:Detailed,
    P2_W08 (Kitchen),        !- Name
    Window,                  !- Surface Type
    Exterior Window,         !- Construction Name
    D3A9CC,                  !- Building Surface Name
    ,                        !- Outside Boundary Condition Object
    ,                        !- View Factor to Ground
    ,                        !- Frame and Divider Name
    ,                        !- Multiplier
    4,                       !- Number of Vertices
    -11.050000000000,        !- Vertex 1 X-coordinate {m}
    -6.500000000000,         !- Vertex 1 Y-coordinate {m}
    4.950000000000,          !- Vertex 1 Z-coordinate {m}
    -11.050000000000,        !- Vertex 2 X-coordinate {m}
    -6.500000000000,         !- Vertex 2 Y-coordinate {m}
    3.950000000000,          !- Vertex 2 Z-coordinate {m}
    -9.650000000000,         !- Vertex 3 X-coordinate {m}
    -6.500000000000,         !- Vertex 3 Y-coordinate {m}
    3.950000000000,          !- Vertex 3 Z-coordinate {m}
    -9.650000000000,         !- Vertex 4 X-coordinate {m}
    -6.500000000000,         !- Vertex 4 Y-coordinate {m}
    4.950000000000;          !- Vertex 4 Z-coordinate {m}

FenestrationSurface:Detailed,
    P2_W15 (Kitchen),        !- Name
    Window,                  !- Surface Type
    Exterior Window,         !- Construction Name
    41C59D,                  !- Building Surface Name
    ,                        !- Outside Boundary Condition Object
    ,                        !- View Factor to Ground
    ,                        !- Frame and Divider Name
    ,                        !- Multiplier
    4,                       !- Number of Vertices
    -21.950000000000,        !- Vertex 1 X-coordinate {m}
    -6.500000000000,         !- Vertex 1 Y-coordinate {m}
    4.950000000000,          !- Vertex 1 Z-coordinate {m}
    -21.950000000000,        !- Vertex 2 X-coordinate {m}
    -6.500000000000,         !- Vertex 2 Y-coordinate {m}
    3.950000000000,          !- Vertex 2 Z-coordinate {m}
    -20.550000000000,        !- Vertex 3 X-coordinate {m}
    -6.500000000000,         !- Vertex 3 Y-coordinate {m}
    3.950000000000,          !- Vertex 3 Z-coordinate {m}
    -20.550000000000,        !- Vertex 4 X-coordinate {m}
    -6.500000000000,         !- Vertex 4 Y-coordinate {m}
    4.950000000000;          !- Vertex 4 Z-coordinate {m}

FenestrationSurface:Detailed,
    P3_W04 (WC),             !- Name
    Window,                  !- Surface Type
    Exterior Window,         !- Construction Name
    78104E,                  !- Building Surface Name
    ,                        !- Outside Boundary Condition Object
    ,                        !- View Factor to Ground
    ,                        !- Frame and Divider Name
    ,                        !- Multiplier
    4,                       !- Number of Vertices
    -3.600000000000,         !- Vertex 1 X-coordinate {m}
    -6.500000000000,         !- Vertex 1 Y-coordinate {m}
    7.800000000000,          !- Vertex 1 Z-coordinate {m}
    -3.600000000000,         !- Vertex 2 X-coordinate {m}
    -6.500000000000,         !- Vertex 2 Y-coordinate {m}
    7.050000000000,          !- Vertex 2 Z-coordinate {m}
    -2.900000000000,         !- Vertex 3 X-coordinate {m}
    -6.500000000000,         !- Vertex 3 Y-coordinate {m}
    7.050000000000,          !- Vertex 3 Z-coordinate {m}
    -2.900000000000,         !- Vertex 4 X-coordinate {m}
    -6.500000000000,         !- Vertex 4 Y-coordinate {m}
    7.800000000000;          !- Vertex 4 Z-coordinate {m}

FenestrationSurface:Detailed,
    P3_W09 (WC),             !- Name
    Window,                  !- Surface Type
    Exterior Window,         !- Construction Name
    E4DAA6,                  !- Building Surface Name
    ,                        !- Outside Boundary Condition Object
    ,                        !- View Factor to Ground
    ,                        !- Frame and Divider Name
    ,                        !- Multiplier
    4,                       !- Number of Vertices
    -12.700000000000,        !- Vertex 1 X-coordinate {m}
    -6.500000000000,         !- Vertex 1 Y-coordinate {m}
    7.800000000000,          !- Vertex 1 Z-coordinate {m}
    -12.700000000000,        !- Vertex 2 X-coordinate {m}
    -6.500000000000,         !- Vertex 2 Y-coordinate {m}
    7.050000000000,          !- Vertex 2 Z-coordinate {m}
    -12.000000000000,        !- Vertex 3 X-coordinate {m}
    -6.500000000000,         !- Vertex 3 Y-coordinate {m}
    7.050000000000,          !- Vertex 3 Z-coordinate {m}
    -12.000000000000,        !- Vertex 4 X-coordinate {m}
    -6.500000000000,         !- Vertex 4 Y-coordinate {m}
    7.800000000000;          !- Vertex 4 Z-coordinate {m}

FenestrationSurface:Detailed,
    P4_W14 (WC),             !- Name
    Window,                  !- Surface Type
    Exterior Window,         !- Construction Name
    9FC06E,                  !- Building Surface Name
    ,                        !- Outside Boundary Condition Object
    ,                        !- View Factor to Ground
    ,                        !- Frame and Divider Name
    ,                        !- Multiplier
    4,                       !- Number of Vertices
    -19.400000000000,        !- Vertex 1 X-coordinate {m}
    -6.500000000000,         !- Vertex 1 Y-coordinate {m}
    10.650000000000,         !- Vertex 1 Z-coordinate {m}
    -19.400000000000,        !- Vertex 2 X-coordinate {m}
    -6.500000000000,         !- Vertex 2 Y-coordinate {m}
    9.900000000000,          !- Vertex 2 Z-coordinate {m}
    -18.707669894195,        !- Vertex 3 X-coordinate {m}
    -6.500000000000,         !- Vertex 3 Y-coordinate {m}
    9.900000000000,          !- Vertex 3 Z-coordinate {m}
    -18.707669894195,        !- Vertex 4 X-coordinate {m}
    -6.500000000000,         !- Vertex 4 Y-coordinate {m}
    10.650000000000;         !- Vertex 4 Z-coordinate {m}


!-   ===========  ALL OBJECTS IN CLASS: INTERNALMASS ===========

InternalMass,
    Massa Termica Ap1p1,     !- Name
    Interior Wall,           !- Construction Name
    APTO01_P1,               !- Zone Name
    13.4;                    !- Surface Area {m2}

InternalMass,
    Massa Termica Ap2p1,     !- Name
    Interior Wall,           !- Construction Name
    APTO02_P1,               !- Zone Name
    13.4;                    !- Surface Area {m2}

InternalMass,
    Massa Termica Ap3p1,     !- Name
    Interior Wall,           !- Construction Name
    APTO03_P1,               !- Zone Name
    13.4;                    !- Surface Area {m2}

InternalMass,
    Massa Termica Ap4p1,     !- Name
    Interior Wall,           !- Construction Name
    APTO04_P1,               !- Zone Name
    13.4;                    !- Surface Area {m2}

InternalMass,
    Massa Termica Ap1p2,     !- Name
    Interior Wall,           !- Construction Name
    APTO01_P2,               !- Zone Name
    13.4;                    !- Surface Area {m2}

InternalMass,
    Massa Termica Ap2p2,     !- Name
    Interior Wall,           !- Construction Name
    APTO02_P2,               !- Zone Name
    13.4;                    !- Surface Area {m2}

InternalMass,
    Massa Termica Ap3p2,     !- Name
    Interior Wall,           !- Construction Name
    APTO03_P2,               !- Zone Name
    13.4;                    !- Surface Area {m2}

InternalMass,
    Massa Termica Ap4p2,     !- Name
    Interior Wall,           !- Construction Name
    APTO04_P2,               !- Zone Name
    13.4;                    !- Surface Area {m2}

InternalMass,
    Massa Termica Ap1p3,     !- Name
    Interior Wall,           !- Construction Name
    APTO01_P3,               !- Zone Name
    13.4;                    !- Surface Area {m2}

InternalMass,
    Massa Termica Ap2p3,     !- Name
    Interior Wall,           !- Construction Name
    APTO02_P3,               !- Zone Name
    13.4;                    !- Surface Area {m2}

InternalMass,
    Massa Termica Ap3p3,     !- Name
    Interior Wall,           !- Construction Name
    APTO03_P3,               !- Zone Name
    13.4;                    !- Surface Area {m2}

InternalMass,
    Massa Termica Ap4p3,     !- Name
    Interior Wall,           !- Construction Name
    APTO04_P3,               !- Zone Name
    13.4;                    !- Surface Area {m2}

InternalMass,
    Massa Termica Ap1p4,     !- Name
    Interior Wall,           !- Construction Name
    APTO01_P4,               !- Zone Name
    13.4;                    !- Surface Area {m2}

InternalMass,
    Massa Termica Ap2p4,     !- Name
    Interior Wall,           !- Construction Name
    APTO02_P4,               !- Zone Name
    13.4;                    !- Surface Area {m2}

InternalMass,
    Massa Termica Ap3p4,     !- Name
    Interior Wall,           !- Construction Name
    APTO03_P4,               !- Zone Name
    13.4;                    !- Surface Area {m2}

InternalMass,
    Massa Termica Ap4p4,     !- Name
    Interior Wall,           !- Construction Name
    APTO04_P3,               !- Zone Name
    13.4;                    !- Surface Area {m2}

InternalMass,
    Massa Termica Ap1p5,     !- Name
    Interior Wall,           !- Construction Name
    APTO01_P5,               !- Zone Name
    13.4;                    !- Surface Area {m2}

InternalMass,
    Massa Termica Ap2p5,     !- Name
    Interior Wall,           !- Construction Name
    APTO02_P5,               !- Zone Name
    13.4;                    !- Surface Area {m2}

InternalMass,
    Massa Termica Ap3p5,     !- Name
    Interior Wall,           !- Construction Name
    APTO03_P5,               !- Zone Name
    13.4;                    !- Surface Area {m2}

InternalMass,
    Massa Termica Ap4p5,     !- Name
    Interior Wall,           !- Construction Name
    APTO04_P5,               !- Zone Name
    13.4;                    !- Surface Area {m2}


!-   ===========  ALL OBJECTS IN CLASS: SHADING:BUILDING:DETAILED ===========

Shading:Building:Detailed,
    49EC49,                  !- Name
    ,                        !- Transmittance Schedule Name
    4,                       !- Number of Vertices
    -9.000000000000,         !- Vertex 1 X-coordinate {m}
    -0.600000000000,         !- Vertex 1 Y-coordinate {m}
    15.450000000000,         !- Vertex 1 Z-coordinate {m}
    -9.000000000000,         !- Vertex 2 X-coordinate {m}
    -0.600000000000,         !- Vertex 2 Y-coordinate {m}
    14.250000000000,         !- Vertex 2 Z-coordinate {m}
    -9.000000000000,         !- Vertex 3 X-coordinate {m}
    0.000000000000,          !- Vertex 3 Y-coordinate {m}
    14.250000000000,         !- Vertex 3 Z-coordinate {m}
    -9.000000000000,         !- Vertex 4 X-coordinate {m}
    0.000000000000,          !- Vertex 4 Y-coordinate {m}
    15.450000000000;         !- Vertex 4 Z-coordinate {m}

Shading:Building:Detailed,
    859207,                  !- Name
    ,                        !- Transmittance Schedule Name
    4,                       !- Number of Vertices
    -6.800000000000,         !- Vertex 1 X-coordinate {m}
    -0.600000000000,         !- Vertex 1 Y-coordinate {m}
    15.450000000000,         !- Vertex 1 Z-coordinate {m}
    -6.800000000000,         !- Vertex 2 X-coordinate {m}
    -0.600000000000,         !- Vertex 2 Y-coordinate {m}
    14.250000000000,         !- Vertex 2 Z-coordinate {m}
    -9.000000000000,         !- Vertex 3 X-coordinate {m}
    -0.600000000000,         !- Vertex 3 Y-coordinate {m}
    14.250000000000,         !- Vertex 3 Z-coordinate {m}
    -9.000000000000,         !- Vertex 4 X-coordinate {m}
    -0.600000000000,         !- Vertex 4 Y-coordinate {m}
    15.450000000000;         !- Vertex 4 Z-coordinate {m}

Shading:Building:Detailed,
    360296,                  !- Name
    ,                        !- Transmittance Schedule Name
    4,                       !- Number of Vertices
    -6.800000000000,         !- Vertex 1 X-coordinate {m}
    0.000000000000,          !- Vertex 1 Y-coordinate {m}
    15.450000000000,         !- Vertex 1 Z-coordinate {m}
    -6.800000000000,         !- Vertex 2 X-coordinate {m}
    0.000000000000,          !- Vertex 2 Y-coordinate {m}
    14.250000000000,         !- Vertex 2 Z-coordinate {m}
    -6.800000000000,         !- Vertex 3 X-coordinate {m}
    -0.600000000000,         !- Vertex 3 Y-coordinate {m}
    14.250000000000,         !- Vertex 3 Z-coordinate {m}
    -6.800000000000,         !- Vertex 4 X-coordinate {m}
    -0.600000000000,         !- Vertex 4 Y-coordinate {m}
    15.450000000000;         !- Vertex 4 Z-coordinate {m}

Shading:Building:Detailed,
    69E7AE,                  !- Name
    ,                        !- Transmittance Schedule Name
    4,                       !- Number of Vertices
    0.000000000000,          !- Vertex 1 X-coordinate {m}
    0.000000000000,          !- Vertex 1 Y-coordinate {m}
    15.450000000000,         !- Vertex 1 Z-coordinate {m}
    0.000000000000,          !- Vertex 2 X-coordinate {m}
    0.000000000000,          !- Vertex 2 Y-coordinate {m}
    14.250000000000,         !- Vertex 2 Z-coordinate {m}
    -6.800000000000,         !- Vertex 3 X-coordinate {m}
    0.000000000000,          !- Vertex 3 Y-coordinate {m}
    14.250000000000,         !- Vertex 3 Z-coordinate {m}
    -6.800000000000,         !- Vertex 4 X-coordinate {m}
    0.000000000000,          !- Vertex 4 Y-coordinate {m}
    15.450000000000;         !- Vertex 4 Z-coordinate {m}

Shading:Building:Detailed,
    E71897,                  !- Name
    ,                        !- Transmittance Schedule Name
    4,                       !- Number of Vertices
    -9.000000000000,         !- Vertex 1 X-coordinate {m}
    0.000000000000,          !- Vertex 1 Y-coordinate {m}
    15.450000000000,         !- Vertex 1 Z-coordinate {m}
    -9.000000000000,         !- Vertex 2 X-coordinate {m}
    0.000000000000,          !- Vertex 2 Y-coordinate {m}
    14.250000000000,         !- Vertex 2 Z-coordinate {m}
    -15.800000000000,        !- Vertex 3 X-coordinate {m}
    0.000000000000,          !- Vertex 3 Y-coordinate {m}
    14.250000000000,         !- Vertex 3 Z-coordinate {m}
    -15.800000000000,        !- Vertex 4 X-coordinate {m}
    0.000000000000,          !- Vertex 4 Y-coordinate {m}
    15.450000000000;         !- Vertex 4 Z-coordinate {m}

Shading:Building:Detailed,
    E65D21,                  !- Name
    ,                        !- Transmittance Schedule Name
    4,                       !- Number of Vertices
    -24.800000000000,        !- Vertex 1 X-coordinate {m}
    -0.600000000000,         !- Vertex 1 Y-coordinate {m}
    15.450000000000,         !- Vertex 1 Z-coordinate {m}
    -24.800000000000,        !- Vertex 2 X-coordinate {m}
    -0.600000000000,         !- Vertex 2 Y-coordinate {m}
    14.250000000000,         !- Vertex 2 Z-coordinate {m}
    -24.800000000000,        !- Vertex 3 X-coordinate {m}
    0.000000000000,          !- Vertex 3 Y-coordinate {m}
    14.250000000000,         !- Vertex 3 Z-coordinate {m}
    -24.800000000000,        !- Vertex 4 X-coordinate {m}
    0.000000000000,          !- Vertex 4 Y-coordinate {m}
    15.450000000000;         !- Vertex 4 Z-coordinate {m}

Shading:Building:Detailed,
    DC2694,                  !- Name
    ,                        !- Transmittance Schedule Name
    4,                       !- Number of Vertices
    -22.600000000000,        !- Vertex 1 X-coordinate {m}
    -0.600000000000,         !- Vertex 1 Y-coordinate {m}
    15.450000000000,         !- Vertex 1 Z-coordinate {m}
    -22.600000000000,        !- Vertex 2 X-coordinate {m}
    -0.600000000000,         !- Vertex 2 Y-coordinate {m}
    14.250000000000,         !- Vertex 2 Z-coordinate {m}
    -24.800000000000,        !- Vertex 3 X-coordinate {m}
    -0.600000000000,         !- Vertex 3 Y-coordinate {m}
    14.250000000000,         !- Vertex 3 Z-coordinate {m}
    -24.800000000000,        !- Vertex 4 X-coordinate {m}
    -0.600000000000,         !- Vertex 4 Y-coordinate {m}
    15.450000000000;         !- Vertex 4 Z-coordinate {m}

Shading:Building:Detailed,
    CD9212,                  !- Name
    ,                        !- Transmittance Schedule Name
    4,                       !- Number of Vertices
    -22.600000000000,        !- Vertex 1 X-coordinate {m}
    0.000000000000,          !- Vertex 1 Y-coordinate {m}
    15.450000000000,         !- Vertex 1 Z-coordinate {m}
    -22.600000000000,        !- Vertex 2 X-coordinate {m}
    0.000000000000,          !- Vertex 2 Y-coordinate {m}
    14.250000000000,         !- Vertex 2 Z-coordinate {m}
    -22.600000000000,        !- Vertex 3 X-coordinate {m}
    -0.600000000000,         !- Vertex 3 Y-coordinate {m}
    14.250000000000,         !- Vertex 3 Z-coordinate {m}
    -22.600000000000,        !- Vertex 4 X-coordinate {m}
    -0.600000000000,         !- Vertex 4 Y-coordinate {m}
    15.450000000000;         !- Vertex 4 Z-coordinate {m}

Shading:Building:Detailed,
    6D81EB,                  !- Name
    ,                        !- Transmittance Schedule Name
    4,                       !- Number of Vertices
    -15.800000000000,        !- Vertex 1 X-coordinate {m}
    0.000000000000,          !- Vertex 1 Y-coordinate {m}
    15.450000000000,         !- Vertex 1 Z-coordinate {m}
    -15.800000000000,        !- Vertex 2 X-coordinate {m}
    0.000000000000,          !- Vertex 2 Y-coordinate {m}
    14.250000000000,         !- Vertex 2 Z-coordinate {m}
    -22.600000000000,        !- Vertex 3 X-coordinate {m}
    0.000000000000,          !- Vertex 3 Y-coordinate {m}
    14.250000000000,         !- Vertex 3 Z-coordinate {m}
    -22.600000000000,        !- Vertex 4 X-coordinate {m}
    0.000000000000,          !- Vertex 4 Y-coordinate {m}
    15.450000000000;         !- Vertex 4 Z-coordinate {m}

Shading:Building:Detailed,
    5DB503,                  !- Name
    ,                        !- Transmittance Schedule Name
    4,                       !- Number of Vertices
    -24.800000000000,        !- Vertex 1 X-coordinate {m}
    0.000000000000,          !- Vertex 1 Y-coordinate {m}
    15.450000000000,         !- Vertex 1 Z-coordinate {m}
    -24.800000000000,        !- Vertex 2 X-coordinate {m}
    0.000000000000,          !- Vertex 2 Y-coordinate {m}
    14.250000000000,         !- Vertex 2 Z-coordinate {m}
    -31.600000000000,        !- Vertex 3 X-coordinate {m}
    0.000000000000,          !- Vertex 3 Y-coordinate {m}
    14.250000000000,         !- Vertex 3 Z-coordinate {m}
    -31.600000000000,        !- Vertex 4 X-coordinate {m}
    0.000000000000,          !- Vertex 4 Y-coordinate {m}
    15.450000000000;         !- Vertex 4 Z-coordinate {m}

Shading:Building:Detailed,
    4E165B,                  !- Name
    ,                        !- Transmittance Schedule Name
    4,                       !- Number of Vertices
    0.000000000000,          !- Vertex 1 X-coordinate {m}
    -6.500000000000,         !- Vertex 1 Y-coordinate {m}
    15.450000000000,         !- Vertex 1 Z-coordinate {m}
    0.000000000000,          !- Vertex 2 X-coordinate {m}
    -6.500000000000,         !- Vertex 2 Y-coordinate {m}
    14.250000000000,         !- Vertex 2 Z-coordinate {m}
    0.000000000000,          !- Vertex 3 X-coordinate {m}
    0.000000000000,          !- Vertex 3 Y-coordinate {m}
    14.250000000000,         !- Vertex 3 Z-coordinate {m}
    0.000000000000,          !- Vertex 4 X-coordinate {m}
    0.000000000000,          !- Vertex 4 Y-coordinate {m}
    15.450000000000;         !- Vertex 4 Z-coordinate {m}

Shading:Building:Detailed,
    7E658A,                  !- Name
    ,                        !- Transmittance Schedule Name
    4,                       !- Number of Vertices
    -31.600000000000,        !- Vertex 1 X-coordinate {m}
    -6.500000000000,         !- Vertex 1 Y-coordinate {m}
    15.450000000000,         !- Vertex 1 Z-coordinate {m}
    -31.600000000000,        !- Vertex 2 X-coordinate {m}
    -6.500000000000,         !- Vertex 2 Y-coordinate {m}
    14.250000000000,         !- Vertex 2 Z-coordinate {m}
    0.000000000000,          !- Vertex 3 X-coordinate {m}
    -6.500000000000,         !- Vertex 3 Y-coordinate {m}
    14.250000000000,         !- Vertex 3 Z-coordinate {m}
    0.000000000000,          !- Vertex 4 X-coordinate {m}
    -6.500000000000,         !- Vertex 4 Y-coordinate {m}
    15.450000000000;         !- Vertex 4 Z-coordinate {m}

Shading:Building:Detailed,
    B2F6A2,                  !- Name
    ,                        !- Transmittance Schedule Name
    4,                       !- Number of Vertices
    -31.600000000000,        !- Vertex 1 X-coordinate {m}
    0.000000000000,          !- Vertex 1 Y-coordinate {m}
    15.450000000000,         !- Vertex 1 Z-coordinate {m}
    -31.600000000000,        !- Vertex 2 X-coordinate {m}
    0.000000000000,          !- Vertex 2 Y-coordinate {m}
    14.250000000000,         !- Vertex 2 Z-coordinate {m}
    -31.600000000000,        !- Vertex 3 X-coordinate {m}
    -6.500000000000,         !- Vertex 3 Y-coordinate {m}
    14.250000000000,         !- Vertex 3 Z-coordinate {m}
    -31.600000000000,        !- Vertex 4 X-coordinate {m}
    -6.500000000000,         !- Vertex 4 Y-coordinate {m}
    15.450000000000;         !- Vertex 4 Z-coordinate {m}

Shading:Building:Detailed,
    4E11BB,                  !- Name
    ,                        !- Transmittance Schedule Name
    4,                       !- Number of Vertices
    -31.600000000000,        !- Vertex 1 X-coordinate {m}
    5.000000000000,          !- Vertex 1 Y-coordinate {m}
    0.000000000000,          !- Vertex 1 Z-coordinate {m}
    -31.600000000000,        !- Vertex 2 X-coordinate {m}
    11.500000000000,         !- Vertex 2 Y-coordinate {m}
    0.000000000000,          !- Vertex 2 Z-coordinate {m}
    0.000000000000,          !- Vertex 3 X-coordinate {m}
    11.500000000000,         !- Vertex 3 Y-coordinate {m}
    0.000000000000,          !- Vertex 3 Z-coordinate {m}
    0.000000000000,          !- Vertex 4 X-coordinate {m}
    5.000000000000,          !- Vertex 4 Y-coordinate {m}
    0.000000000000;          !- Vertex 4 Z-coordinate {m}

Shading:Building:Detailed,
    176A1C,                  !- Name
    ,                        !- Transmittance Schedule Name
    4,                       !- Number of Vertices
    -31.600000000000,        !- Vertex 1 X-coordinate {m}
    11.500000000000,         !- Vertex 1 Y-coordinate {m}
    15.450000000000,         !- Vertex 1 Z-coordinate {m}
    -31.600000000000,        !- Vertex 2 X-coordinate {m}
    11.500000000000,         !- Vertex 2 Y-coordinate {m}
    0.000000000000,          !- Vertex 2 Z-coordinate {m}
    -31.600000000000,        !- Vertex 3 X-coordinate {m}
    5.000000000000,          !- Vertex 3 Y-coordinate {m}
    0.000000000000,          !- Vertex 3 Z-coordinate {m}
    -31.600000000000,        !- Vertex 4 X-coordinate {m}
    5.000000000000,          !- Vertex 4 Y-coordinate {m}
    15.450000000000;         !- Vertex 4 Z-coordinate {m}

Shading:Building:Detailed,
    541DD9,                  !- Name
    ,                        !- Transmittance Schedule Name
    4,                       !- Number of Vertices
    0.000000000000,          !- Vertex 1 X-coordinate {m}
    11.500000000000,         !- Vertex 1 Y-coordinate {m}
    15.450000000000,         !- Vertex 1 Z-coordinate {m}
    0.000000000000,          !- Vertex 2 X-coordinate {m}
    11.500000000000,         !- Vertex 2 Y-coordinate {m}
    0.000000000000,          !- Vertex 2 Z-coordinate {m}
    -31.600000000000,        !- Vertex 3 X-coordinate {m}
    11.500000000000,         !- Vertex 3 Y-coordinate {m}
    0.000000000000,          !- Vertex 3 Z-coordinate {m}
    -31.600000000000,        !- Vertex 4 X-coordinate {m}
    11.500000000000,         !- Vertex 4 Y-coordinate {m}
    15.450000000000;         !- Vertex 4 Z-coordinate {m}

Shading:Building:Detailed,
    AE1F13,                  !- Name
    ,                        !- Transmittance Schedule Name
    4,                       !- Number of Vertices
    0.000000000000,          !- Vertex 1 X-coordinate {m}
    5.000000000000,          !- Vertex 1 Y-coordinate {m}
    15.450000000000,         !- Vertex 1 Z-coordinate {m}
    0.000000000000,          !- Vertex 2 X-coordinate {m}
    5.000000000000,          !- Vertex 2 Y-coordinate {m}
    0.000000000000,          !- Vertex 2 Z-coordinate {m}
    0.000000000000,          !- Vertex 3 X-coordinate {m}
    11.500000000000,         !- Vertex 3 Y-coordinate {m}
    0.000000000000,          !- Vertex 3 Z-coordinate {m}
    0.000000000000,          !- Vertex 4 X-coordinate {m}
    11.500000000000,         !- Vertex 4 Y-coordinate {m}
    15.450000000000;         !- Vertex 4 Z-coordinate {m}

Shading:Building:Detailed,
    A029D6,                  !- Name
    ,                        !- Transmittance Schedule Name
    4,                       !- Number of Vertices
    0.000000000000,          !- Vertex 1 X-coordinate {m}
    5.000000000000,          !- Vertex 1 Y-coordinate {m}
    15.450000000000,         !- Vertex 1 Z-coordinate {m}
    0.000000000000,          !- Vertex 2 X-coordinate {m}
    11.500000000000,         !- Vertex 2 Y-coordinate {m}
    15.450000000000,         !- Vertex 2 Z-coordinate {m}
    -31.600000000000,        !- Vertex 3 X-coordinate {m}
    11.500000000000,         !- Vertex 3 Y-coordinate {m}
    15.450000000000,         !- Vertex 3 Z-coordinate {m}
    -31.600000000000,        !- Vertex 4 X-coordinate {m}
    5.000000000000,          !- Vertex 4 Y-coordinate {m}
    15.450000000000;         !- Vertex 4 Z-coordinate {m}

Shading:Building:Detailed,
    2A873A,                  !- Name
    ,                        !- Transmittance Schedule Name
    4,                       !- Number of Vertices
    -31.600000000000,        !- Vertex 1 X-coordinate {m}
    5.000000000000,          !- Vertex 1 Y-coordinate {m}
    15.450000000000,         !- Vertex 1 Z-coordinate {m}
    -31.600000000000,        !- Vertex 2 X-coordinate {m}
    5.000000000000,          !- Vertex 2 Y-coordinate {m}
    0.000000000000,          !- Vertex 2 Z-coordinate {m}
    0.000000000000,          !- Vertex 3 X-coordinate {m}
    5.000000000000,          !- Vertex 3 Y-coordinate {m}
    0.000000000000,          !- Vertex 3 Z-coordinate {m}
    0.000000000000,          !- Vertex 4 X-coordinate {m}
    5.000000000000,          !- Vertex 4 Y-coordinate {m}
    15.450000000000;         !- Vertex 4 Z-coordinate {m}

Shading:Building:Detailed,
    2C6284,                  !- Name
    ,                        !- Transmittance Schedule Name
    4,                       !- Number of Vertices
    -68.200000000000,        !- Vertex 1 X-coordinate {m}
    5.000000000000,          !- Vertex 1 Y-coordinate {m}
    0.000000000000,          !- Vertex 1 Z-coordinate {m}
    -68.200000000000,        !- Vertex 2 X-coordinate {m}
    11.500000000000,         !- Vertex 2 Y-coordinate {m}
    0.000000000000,          !- Vertex 2 Z-coordinate {m}
    -36.600000000000,        !- Vertex 3 X-coordinate {m}
    11.500000000000,         !- Vertex 3 Y-coordinate {m}
    0.000000000000,          !- Vertex 3 Z-coordinate {m}
    -36.600000000000,        !- Vertex 4 X-coordinate {m}
    5.000000000000,          !- Vertex 4 Y-coordinate {m}
    0.000000000000;          !- Vertex 4 Z-coordinate {m}

Shading:Building:Detailed,
    2D5105,                  !- Name
    ,                        !- Transmittance Schedule Name
    4,                       !- Number of Vertices
    -68.200000000000,        !- Vertex 1 X-coordinate {m}
    11.500000000000,         !- Vertex 1 Y-coordinate {m}
    15.450000000000,         !- Vertex 1 Z-coordinate {m}
    -68.200000000000,        !- Vertex 2 X-coordinate {m}
    11.500000000000,         !- Vertex 2 Y-coordinate {m}
    0.000000000000,          !- Vertex 2 Z-coordinate {m}
    -68.200000000000,        !- Vertex 3 X-coordinate {m}
    5.000000000000,          !- Vertex 3 Y-coordinate {m}
    0.000000000000,          !- Vertex 3 Z-coordinate {m}
    -68.200000000000,        !- Vertex 4 X-coordinate {m}
    5.000000000000,          !- Vertex 4 Y-coordinate {m}
    15.450000000000;         !- Vertex 4 Z-coordinate {m}

Shading:Building:Detailed,
    FF16DB,                  !- Name
    ,                        !- Transmittance Schedule Name
    4,                       !- Number of Vertices
    -36.600000000000,        !- Vertex 1 X-coordinate {m}
    11.500000000000,         !- Vertex 1 Y-coordinate {m}
    15.450000000000,         !- Vertex 1 Z-coordinate {m}
    -36.600000000000,        !- Vertex 2 X-coordinate {m}
    11.500000000000,         !- Vertex 2 Y-coordinate {m}
    0.000000000000,          !- Vertex 2 Z-coordinate {m}
    -68.200000000000,        !- Vertex 3 X-coordinate {m}
    11.500000000000,         !- Vertex 3 Y-coordinate {m}
    0.000000000000,          !- Vertex 3 Z-coordinate {m}
    -68.200000000000,        !- Vertex 4 X-coordinate {m}
    11.500000000000,         !- Vertex 4 Y-coordinate {m}
    15.450000000000;         !- Vertex 4 Z-coordinate {m}

Shading:Building:Detailed,
    B60262,                  !- Name
    ,                        !- Transmittance Schedule Name
    4,                       !- Number of Vertices
    -36.600000000000,        !- Vertex 1 X-coordinate {m}
    5.000000000000,          !- Vertex 1 Y-coordinate {m}
    15.450000000000,         !- Vertex 1 Z-coordinate {m}
    -36.600000000000,        !- Vertex 2 X-coordinate {m}
    5.000000000000,          !- Vertex 2 Y-coordinate {m}
    0.000000000000,          !- Vertex 2 Z-coordinate {m}
    -36.600000000000,        !- Vertex 3 X-coordinate {m}
    11.500000000000,         !- Vertex 3 Y-coordinate {m}
    0.000000000000,          !- Vertex 3 Z-coordinate {m}
    -36.600000000000,        !- Vertex 4 X-coordinate {m}
    11.500000000000,         !- Vertex 4 Y-coordinate {m}
    15.450000000000;         !- Vertex 4 Z-coordinate {m}

Shading:Building:Detailed,
    92F80A,                  !- Name
    ,                        !- Transmittance Schedule Name
    4,                       !- Number of Vertices
    -68.200000000000,        !- Vertex 1 X-coordinate {m}
    5.000000000000,          !- Vertex 1 Y-coordinate {m}
    15.450000000000,         !- Vertex 1 Z-coordinate {m}
    -68.200000000000,        !- Vertex 2 X-coordinate {m}
    5.000000000000,          !- Vertex 2 Y-coordinate {m}
    0.000000000000,          !- Vertex 2 Z-coordinate {m}
    -36.600000000000,        !- Vertex 3 X-coordinate {m}
    5.000000000000,          !- Vertex 3 Y-coordinate {m}
    0.000000000000,          !- Vertex 3 Z-coordinate {m}
    -36.600000000000,        !- Vertex 4 X-coordinate {m}
    5.000000000000,          !- Vertex 4 Y-coordinate {m}
    15.450000000000;         !- Vertex 4 Z-coordinate {m}

Shading:Building:Detailed,
    B29FE4,                  !- Name
    ,                        !- Transmittance Schedule Name
    4,                       !- Number of Vertices
    -36.600000000000,        !- Vertex 1 X-coordinate {m}
    5.000000000000,          !- Vertex 1 Y-coordinate {m}
    15.450000000000,         !- Vertex 1 Z-coordinate {m}
    -36.600000000000,        !- Vertex 2 X-coordinate {m}
    11.500000000000,         !- Vertex 2 Y-coordinate {m}
    15.450000000000,         !- Vertex 2 Z-coordinate {m}
    -68.200000000000,        !- Vertex 3 X-coordinate {m}
    11.500000000000,         !- Vertex 3 Y-coordinate {m}
    15.450000000000,         !- Vertex 3 Z-coordinate {m}
    -68.200000000000,        !- Vertex 4 X-coordinate {m}
    5.000000000000,          !- Vertex 4 Y-coordinate {m}
    15.450000000000;         !- Vertex 4 Z-coordinate {m}

Shading:Building:Detailed,
    13964E,                  !- Name
    ,                        !- Transmittance Schedule Name
    4,                       !- Number of Vertices
    5.000000000000,          !- Vertex 1 X-coordinate {m}
    5.000000000000,          !- Vertex 1 Y-coordinate {m}
    0.000000000000,          !- Vertex 1 Z-coordinate {m}
    5.000000000000,          !- Vertex 2 X-coordinate {m}
    11.500000000000,         !- Vertex 2 Y-coordinate {m}
    0.000000000000,          !- Vertex 2 Z-coordinate {m}
    36.600000000000,         !- Vertex 3 X-coordinate {m}
    11.500000000000,         !- Vertex 3 Y-coordinate {m}
    0.000000000000,          !- Vertex 3 Z-coordinate {m}
    36.600000000000,         !- Vertex 4 X-coordinate {m}
    5.000000000000,          !- Vertex 4 Y-coordinate {m}
    0.000000000000;          !- Vertex 4 Z-coordinate {m}

Shading:Building:Detailed,
    B9D59D,                  !- Name
    ,                        !- Transmittance Schedule Name
    4,                       !- Number of Vertices
    5.000000000000,          !- Vertex 1 X-coordinate {m}
    11.500000000000,         !- Vertex 1 Y-coordinate {m}
    15.450000000000,         !- Vertex 1 Z-coordinate {m}
    5.000000000000,          !- Vertex 2 X-coordinate {m}
    11.500000000000,         !- Vertex 2 Y-coordinate {m}
    0.000000000000,          !- Vertex 2 Z-coordinate {m}
    5.000000000000,          !- Vertex 3 X-coordinate {m}
    5.000000000000,          !- Vertex 3 Y-coordinate {m}
    0.000000000000,          !- Vertex 3 Z-coordinate {m}
    5.000000000000,          !- Vertex 4 X-coordinate {m}
    5.000000000000,          !- Vertex 4 Y-coordinate {m}
    15.450000000000;         !- Vertex 4 Z-coordinate {m}

Shading:Building:Detailed,
    B7765F,                  !- Name
    ,                        !- Transmittance Schedule Name
    4,                       !- Number of Vertices
    36.600000000000,         !- Vertex 1 X-coordinate {m}
    11.500000000000,         !- Vertex 1 Y-coordinate {m}
    15.450000000000,         !- Vertex 1 Z-coordinate {m}
    36.600000000000,         !- Vertex 2 X-coordinate {m}
    11.500000000000,         !- Vertex 2 Y-coordinate {m}
    0.000000000000,          !- Vertex 2 Z-coordinate {m}
    5.000000000000,          !- Vertex 3 X-coordinate {m}
    11.500000000000,         !- Vertex 3 Y-coordinate {m}
    0.000000000000,          !- Vertex 3 Z-coordinate {m}
    5.000000000000,          !- Vertex 4 X-coordinate {m}
    11.500000000000,         !- Vertex 4 Y-coordinate {m}
    15.450000000000;         !- Vertex 4 Z-coordinate {m}

Shading:Building:Detailed,
    AA6EB7,                  !- Name
    ,                        !- Transmittance Schedule Name
    4,                       !- Number of Vertices
    36.600000000000,         !- Vertex 1 X-coordinate {m}
    5.000000000000,          !- Vertex 1 Y-coordinate {m}
    15.450000000000,         !- Vertex 1 Z-coordinate {m}
    36.600000000000,         !- Vertex 2 X-coordinate {m}
    5.000000000000,          !- Vertex 2 Y-coordinate {m}
    0.000000000000,          !- Vertex 2 Z-coordinate {m}
    36.600000000000,         !- Vertex 3 X-coordinate {m}
    11.500000000000,         !- Vertex 3 Y-coordinate {m}
    0.000000000000,          !- Vertex 3 Z-coordinate {m}
    36.600000000000,         !- Vertex 4 X-coordinate {m}
    11.500000000000,         !- Vertex 4 Y-coordinate {m}
    15.450000000000;         !- Vertex 4 Z-coordinate {m}

Shading:Building:Detailed,
    1F17D3,                  !- Name
    ,                        !- Transmittance Schedule Name
    4,                       !- Number of Vertices
    5.000000000000,          !- Vertex 1 X-coordinate {m}
    5.000000000000,          !- Vertex 1 Y-coordinate {m}
    15.450000000000,         !- Vertex 1 Z-coordinate {m}
    5.000000000000,          !- Vertex 2 X-coordinate {m}
    5.000000000000,          !- Vertex 2 Y-coordinate {m}
    0.000000000000,          !- Vertex 2 Z-coordinate {m}
    36.600000000000,         !- Vertex 3 X-coordinate {m}
    5.000000000000,          !- Vertex 3 Y-coordinate {m}
    0.000000000000,          !- Vertex 3 Z-coordinate {m}
    36.600000000000,         !- Vertex 4 X-coordinate {m}
    5.000000000000,          !- Vertex 4 Y-coordinate {m}
    15.450000000000;         !- Vertex 4 Z-coordinate {m}

Shading:Building:Detailed,
    CD72C2,                  !- Name
    ,                        !- Transmittance Schedule Name
    4,                       !- Number of Vertices
    36.600000000000,         !- Vertex 1 X-coordinate {m}
    5.000000000000,          !- Vertex 1 Y-coordinate {m}
    15.450000000000,         !- Vertex 1 Z-coordinate {m}
    36.600000000000,         !- Vertex 2 X-coordinate {m}
    11.500000000000,         !- Vertex 2 Y-coordinate {m}
    15.450000000000,         !- Vertex 2 Z-coordinate {m}
    5.000000000000,          !- Vertex 3 X-coordinate {m}
    11.500000000000,         !- Vertex 3 Y-coordinate {m}
    15.450000000000,         !- Vertex 3 Z-coordinate {m}
    5.000000000000,          !- Vertex 4 X-coordinate {m}
    5.000000000000,          !- Vertex 4 Y-coordinate {m}
    15.450000000000;         !- Vertex 4 Z-coordinate {m}

Shading:Building:Detailed,
    FC6D17,                  !- Name
    ,                        !- Transmittance Schedule Name
    4,                       !- Number of Vertices
    -68.200000000000,        !- Vertex 1 X-coordinate {m}
    -6.500000000000,         !- Vertex 1 Y-coordinate {m}
    0.000000000000,          !- Vertex 1 Z-coordinate {m}
    -68.200000000000,        !- Vertex 2 X-coordinate {m}
    0.000000000000,          !- Vertex 2 Y-coordinate {m}
    0.000000000000,          !- Vertex 2 Z-coordinate {m}
    -36.600000000000,        !- Vertex 3 X-coordinate {m}
    0.000000000000,          !- Vertex 3 Y-coordinate {m}
    0.000000000000,          !- Vertex 3 Z-coordinate {m}
    -36.600000000000,        !- Vertex 4 X-coordinate {m}
    -6.500000000000,         !- Vertex 4 Y-coordinate {m}
    0.000000000000;          !- Vertex 4 Z-coordinate {m}

Shading:Building:Detailed,
    4B9331,                  !- Name
    ,                        !- Transmittance Schedule Name
    4,                       !- Number of Vertices
    -68.200000000000,        !- Vertex 1 X-coordinate {m}
    0.000000000000,          !- Vertex 1 Y-coordinate {m}
    15.450000000000,         !- Vertex 1 Z-coordinate {m}
    -68.200000000000,        !- Vertex 2 X-coordinate {m}
    0.000000000000,          !- Vertex 2 Y-coordinate {m}
    0.000000000000,          !- Vertex 2 Z-coordinate {m}
    -68.200000000000,        !- Vertex 3 X-coordinate {m}
    -6.500000000000,         !- Vertex 3 Y-coordinate {m}
    0.000000000000,          !- Vertex 3 Z-coordinate {m}
    -68.200000000000,        !- Vertex 4 X-coordinate {m}
    -6.500000000000,         !- Vertex 4 Y-coordinate {m}
    15.450000000000;         !- Vertex 4 Z-coordinate {m}

Shading:Building:Detailed,
    B99246,                  !- Name
    ,                        !- Transmittance Schedule Name
    4,                       !- Number of Vertices
    -36.600000000000,        !- Vertex 1 X-coordinate {m}
    0.000000000000,          !- Vertex 1 Y-coordinate {m}
    15.450000000000,         !- Vertex 1 Z-coordinate {m}
    -36.600000000000,        !- Vertex 2 X-coordinate {m}
    0.000000000000,          !- Vertex 2 Y-coordinate {m}
    0.000000000000,          !- Vertex 2 Z-coordinate {m}
    -68.200000000000,        !- Vertex 3 X-coordinate {m}
    0.000000000000,          !- Vertex 3 Y-coordinate {m}
    0.000000000000,          !- Vertex 3 Z-coordinate {m}
    -68.200000000000,        !- Vertex 4 X-coordinate {m}
    0.000000000000,          !- Vertex 4 Y-coordinate {m}
    15.450000000000;         !- Vertex 4 Z-coordinate {m}

Shading:Building:Detailed,
    9617FC,                  !- Name
    ,                        !- Transmittance Schedule Name
    4,                       !- Number of Vertices
    -36.600000000000,        !- Vertex 1 X-coordinate {m}
    -6.500000000000,         !- Vertex 1 Y-coordinate {m}
    15.450000000000,         !- Vertex 1 Z-coordinate {m}
    -36.600000000000,        !- Vertex 2 X-coordinate {m}
    -6.500000000000,         !- Vertex 2 Y-coordinate {m}
    0.000000000000,          !- Vertex 2 Z-coordinate {m}
    -36.600000000000,        !- Vertex 3 X-coordinate {m}
    0.000000000000,          !- Vertex 3 Y-coordinate {m}
    0.000000000000,          !- Vertex 3 Z-coordinate {m}
    -36.600000000000,        !- Vertex 4 X-coordinate {m}
    0.000000000000,          !- Vertex 4 Y-coordinate {m}
    15.450000000000;         !- Vertex 4 Z-coordinate {m}

Shading:Building:Detailed,
    494EF3,                  !- Name
    ,                        !- Transmittance Schedule Name
    4,                       !- Number of Vertices
    -68.200000000000,        !- Vertex 1 X-coordinate {m}
    -6.500000000000,         !- Vertex 1 Y-coordinate {m}
    15.450000000000,         !- Vertex 1 Z-coordinate {m}
    -68.200000000000,        !- Vertex 2 X-coordinate {m}
    -6.500000000000,         !- Vertex 2 Y-coordinate {m}
    0.000000000000,          !- Vertex 2 Z-coordinate {m}
    -36.600000000000,        !- Vertex 3 X-coordinate {m}
    -6.500000000000,         !- Vertex 3 Y-coordinate {m}
    0.000000000000,          !- Vertex 3 Z-coordinate {m}
    -36.600000000000,        !- Vertex 4 X-coordinate {m}
    -6.500000000000,         !- Vertex 4 Y-coordinate {m}
    15.450000000000;         !- Vertex 4 Z-coordinate {m}

Shading:Building:Detailed,
    928593,                  !- Name
    ,                        !- Transmittance Schedule Name
    4,                       !- Number of Vertices
    -36.600000000000,        !- Vertex 1 X-coordinate {m}
    -6.500000000000,         !- Vertex 1 Y-coordinate {m}
    15.450000000000,         !- Vertex 1 Z-coordinate {m}
    -36.600000000000,        !- Vertex 2 X-coordinate {m}
    0.000000000000,          !- Vertex 2 Y-coordinate {m}
    15.450000000000,         !- Vertex 2 Z-coordinate {m}
    -68.200000000000,        !- Vertex 3 X-coordinate {m}
    0.000000000000,          !- Vertex 3 Y-coordinate {m}
    15.450000000000,         !- Vertex 3 Z-coordinate {m}
    -68.200000000000,        !- Vertex 4 X-coordinate {m}
    -6.500000000000,         !- Vertex 4 Y-coordinate {m}
    15.450000000000;         !- Vertex 4 Z-coordinate {m}

Shading:Building:Detailed,
    5ABE37,                  !- Name
    ,                        !- Transmittance Schedule Name
    4,                       !- Number of Vertices
    5.000000000000,          !- Vertex 1 X-coordinate {m}
    -6.500000000000,         !- Vertex 1 Y-coordinate {m}
    0.000000000000,          !- Vertex 1 Z-coordinate {m}
    5.000000000000,          !- Vertex 2 X-coordinate {m}
    0.000000000000,          !- Vertex 2 Y-coordinate {m}
    0.000000000000,          !- Vertex 2 Z-coordinate {m}
    36.600000000000,         !- Vertex 3 X-coordinate {m}
    0.000000000000,          !- Vertex 3 Y-coordinate {m}
    0.000000000000,          !- Vertex 3 Z-coordinate {m}
    36.600000000000,         !- Vertex 4 X-coordinate {m}
    -6.500000000000,         !- Vertex 4 Y-coordinate {m}
    0.000000000000;          !- Vertex 4 Z-coordinate {m}

Shading:Building:Detailed,
    9E6E4E,                  !- Name
    ,                        !- Transmittance Schedule Name
    4,                       !- Number of Vertices
    5.000000000000,          !- Vertex 1 X-coordinate {m}
    0.000000000000,          !- Vertex 1 Y-coordinate {m}
    15.450000000000,         !- Vertex 1 Z-coordinate {m}
    5.000000000000,          !- Vertex 2 X-coordinate {m}
    0.000000000000,          !- Vertex 2 Y-coordinate {m}
    0.000000000000,          !- Vertex 2 Z-coordinate {m}
    5.000000000000,          !- Vertex 3 X-coordinate {m}
    -6.500000000000,         !- Vertex 3 Y-coordinate {m}
    0.000000000000,          !- Vertex 3 Z-coordinate {m}
    5.000000000000,          !- Vertex 4 X-coordinate {m}
    -6.500000000000,         !- Vertex 4 Y-coordinate {m}
    15.450000000000;         !- Vertex 4 Z-coordinate {m}

Shading:Building:Detailed,
    30D86D,                  !- Name
    ,                        !- Transmittance Schedule Name
    4,                       !- Number of Vertices
    36.600000000000,         !- Vertex 1 X-coordinate {m}
    0.000000000000,          !- Vertex 1 Y-coordinate {m}
    15.450000000000,         !- Vertex 1 Z-coordinate {m}
    36.600000000000,         !- Vertex 2 X-coordinate {m}
    0.000000000000,          !- Vertex 2 Y-coordinate {m}
    0.000000000000,          !- Vertex 2 Z-coordinate {m}
    5.000000000000,          !- Vertex 3 X-coordinate {m}
    0.000000000000,          !- Vertex 3 Y-coordinate {m}
    0.000000000000,          !- Vertex 3 Z-coordinate {m}
    5.000000000000,          !- Vertex 4 X-coordinate {m}
    0.000000000000,          !- Vertex 4 Y-coordinate {m}
    15.450000000000;         !- Vertex 4 Z-coordinate {m}

Shading:Building:Detailed,
    16B285,                  !- Name
    ,                        !- Transmittance Schedule Name
    4,                       !- Number of Vertices
    36.600000000000,         !- Vertex 1 X-coordinate {m}
    -6.500000000000,         !- Vertex 1 Y-coordinate {m}
    15.450000000000,         !- Vertex 1 Z-coordinate {m}
    36.600000000000,         !- Vertex 2 X-coordinate {m}
    -6.500000000000,         !- Vertex 2 Y-coordinate {m}
    0.000000000000,          !- Vertex 2 Z-coordinate {m}
    36.600000000000,         !- Vertex 3 X-coordinate {m}
    0.000000000000,          !- Vertex 3 Y-coordinate {m}
    0.000000000000,          !- Vertex 3 Z-coordinate {m}
    36.600000000000,         !- Vertex 4 X-coordinate {m}
    0.000000000000,          !- Vertex 4 Y-coordinate {m}
    15.450000000000;         !- Vertex 4 Z-coordinate {m}

Shading:Building:Detailed,
    2155A9,                  !- Name
    ,                        !- Transmittance Schedule Name
    4,                       !- Number of Vertices
    5.000000000000,          !- Vertex 1 X-coordinate {m}
    -6.500000000000,         !- Vertex 1 Y-coordinate {m}
    15.450000000000,         !- Vertex 1 Z-coordinate {m}
    5.000000000000,          !- Vertex 2 X-coordinate {m}
    -6.500000000000,         !- Vertex 2 Y-coordinate {m}
    0.000000000000,          !- Vertex 2 Z-coordinate {m}
    36.600000000000,         !- Vertex 3 X-coordinate {m}
    -6.500000000000,         !- Vertex 3 Y-coordinate {m}
    0.000000000000,          !- Vertex 3 Z-coordinate {m}
    36.600000000000,         !- Vertex 4 X-coordinate {m}
    -6.500000000000,         !- Vertex 4 Y-coordinate {m}
    15.450000000000;         !- Vertex 4 Z-coordinate {m}

Shading:Building:Detailed,
    DF206B,                  !- Name
    ,                        !- Transmittance Schedule Name
    4,                       !- Number of Vertices
    36.600000000000,         !- Vertex 1 X-coordinate {m}
    -6.500000000000,         !- Vertex 1 Y-coordinate {m}
    15.450000000000,         !- Vertex 1 Z-coordinate {m}
    36.600000000000,         !- Vertex 2 X-coordinate {m}
    0.000000000000,          !- Vertex 2 Y-coordinate {m}
    15.450000000000,         !- Vertex 2 Z-coordinate {m}
    5.000000000000,          !- Vertex 3 X-coordinate {m}
    0.000000000000,          !- Vertex 3 Y-coordinate {m}
    15.450000000000,         !- Vertex 3 Z-coordinate {m}
    5.000000000000,          !- Vertex 4 X-coordinate {m}
    -6.500000000000,         !- Vertex 4 Y-coordinate {m}
    15.450000000000;         !- Vertex 4 Z-coordinate {m}

Shading:Building:Detailed,
    2C86BB,                  !- Name
    ,                        !- Transmittance Schedule Name
    4,                       !- Number of Vertices
    -68.200000000000,        !- Vertex 1 X-coordinate {m}
    -18.000000000000,        !- Vertex 1 Y-coordinate {m}
    0.000000000000,          !- Vertex 1 Z-coordinate {m}
    -68.200000000000,        !- Vertex 2 X-coordinate {m}
    -11.500000000000,        !- Vertex 2 Y-coordinate {m}
    0.000000000000,          !- Vertex 2 Z-coordinate {m}
    -36.600000000000,        !- Vertex 3 X-coordinate {m}
    -11.500000000000,        !- Vertex 3 Y-coordinate {m}
    0.000000000000,          !- Vertex 3 Z-coordinate {m}
    -36.600000000000,        !- Vertex 4 X-coordinate {m}
    -18.000000000000,        !- Vertex 4 Y-coordinate {m}
    0.000000000000;          !- Vertex 4 Z-coordinate {m}

Shading:Building:Detailed,
    CE9D06,                  !- Name
    ,                        !- Transmittance Schedule Name
    4,                       !- Number of Vertices
    -68.200000000000,        !- Vertex 1 X-coordinate {m}
    -11.500000000000,        !- Vertex 1 Y-coordinate {m}
    15.450000000000,         !- Vertex 1 Z-coordinate {m}
    -68.200000000000,        !- Vertex 2 X-coordinate {m}
    -11.500000000000,        !- Vertex 2 Y-coordinate {m}
    0.000000000000,          !- Vertex 2 Z-coordinate {m}
    -68.200000000000,        !- Vertex 3 X-coordinate {m}
    -18.000000000000,        !- Vertex 3 Y-coordinate {m}
    0.000000000000,          !- Vertex 3 Z-coordinate {m}
    -68.200000000000,        !- Vertex 4 X-coordinate {m}
    -18.000000000000,        !- Vertex 4 Y-coordinate {m}
    15.450000000000;         !- Vertex 4 Z-coordinate {m}

Shading:Building:Detailed,
    247F3B,                  !- Name
    ,                        !- Transmittance Schedule Name
    4,                       !- Number of Vertices
    -36.600000000000,        !- Vertex 1 X-coordinate {m}
    -11.500000000000,        !- Vertex 1 Y-coordinate {m}
    15.450000000000,         !- Vertex 1 Z-coordinate {m}
    -36.600000000000,        !- Vertex 2 X-coordinate {m}
    -11.500000000000,        !- Vertex 2 Y-coordinate {m}
    0.000000000000,          !- Vertex 2 Z-coordinate {m}
    -68.200000000000,        !- Vertex 3 X-coordinate {m}
    -11.500000000000,        !- Vertex 3 Y-coordinate {m}
    0.000000000000,          !- Vertex 3 Z-coordinate {m}
    -68.200000000000,        !- Vertex 4 X-coordinate {m}
    -11.500000000000,        !- Vertex 4 Y-coordinate {m}
    15.450000000000;         !- Vertex 4 Z-coordinate {m}

Shading:Building:Detailed,
    A6C09F,                  !- Name
    ,                        !- Transmittance Schedule Name
    4,                       !- Number of Vertices
    -36.600000000000,        !- Vertex 1 X-coordinate {m}
    -18.000000000000,        !- Vertex 1 Y-coordinate {m}
    15.450000000000,         !- Vertex 1 Z-coordinate {m}
    -36.600000000000,        !- Vertex 2 X-coordinate {m}
    -18.000000000000,        !- Vertex 2 Y-coordinate {m}
    0.000000000000,          !- Vertex 2 Z-coordinate {m}
    -36.600000000000,        !- Vertex 3 X-coordinate {m}
    -11.500000000000,        !- Vertex 3 Y-coordinate {m}
    0.000000000000,          !- Vertex 3 Z-coordinate {m}
    -36.600000000000,        !- Vertex 4 X-coordinate {m}
    -11.500000000000,        !- Vertex 4 Y-coordinate {m}
    15.450000000000;         !- Vertex 4 Z-coordinate {m}

Shading:Building:Detailed,
    8F6BAC,                  !- Name
    ,                        !- Transmittance Schedule Name
    4,                       !- Number of Vertices
    -68.200000000000,        !- Vertex 1 X-coordinate {m}
    -18.000000000000,        !- Vertex 1 Y-coordinate {m}
    15.450000000000,         !- Vertex 1 Z-coordinate {m}
    -68.200000000000,        !- Vertex 2 X-coordinate {m}
    -18.000000000000,        !- Vertex 2 Y-coordinate {m}
    0.000000000000,          !- Vertex 2 Z-coordinate {m}
    -36.600000000000,        !- Vertex 3 X-coordinate {m}
    -18.000000000000,        !- Vertex 3 Y-coordinate {m}
    0.000000000000,          !- Vertex 3 Z-coordinate {m}
    -36.600000000000,        !- Vertex 4 X-coordinate {m}
    -18.000000000000,        !- Vertex 4 Y-coordinate {m}
    15.450000000000;         !- Vertex 4 Z-coordinate {m}

Shading:Building:Detailed,
    70C2B9,                  !- Name
    ,                        !- Transmittance Schedule Name
    4,                       !- Number of Vertices
    -36.600000000000,        !- Vertex 1 X-coordinate {m}
    -18.000000000000,        !- Vertex 1 Y-coordinate {m}
    15.450000000000,         !- Vertex 1 Z-coordinate {m}
    -36.600000000000,        !- Vertex 2 X-coordinate {m}
    -11.500000000000,        !- Vertex 2 Y-coordinate {m}
    15.450000000000,         !- Vertex 2 Z-coordinate {m}
    -68.200000000000,        !- Vertex 3 X-coordinate {m}
    -11.500000000000,        !- Vertex 3 Y-coordinate {m}
    15.450000000000,         !- Vertex 3 Z-coordinate {m}
    -68.200000000000,        !- Vertex 4 X-coordinate {m}
    -18.000000000000,        !- Vertex 4 Y-coordinate {m}
    15.450000000000;         !- Vertex 4 Z-coordinate {m}

Shading:Building:Detailed,
    535F32,                  !- Name
    ,                        !- Transmittance Schedule Name
    4,                       !- Number of Vertices
    5.000000000000,          !- Vertex 1 X-coordinate {m}
    -18.000000000000,        !- Vertex 1 Y-coordinate {m}
    0.000000000000,          !- Vertex 1 Z-coordinate {m}
    5.000000000000,          !- Vertex 2 X-coordinate {m}
    -11.500000000000,        !- Vertex 2 Y-coordinate {m}
    0.000000000000,          !- Vertex 2 Z-coordinate {m}
    36.600000000000,         !- Vertex 3 X-coordinate {m}
    -11.500000000000,        !- Vertex 3 Y-coordinate {m}
    0.000000000000,          !- Vertex 3 Z-coordinate {m}
    36.600000000000,         !- Vertex 4 X-coordinate {m}
    -18.000000000000,        !- Vertex 4 Y-coordinate {m}
    0.000000000000;          !- Vertex 4 Z-coordinate {m}

Shading:Building:Detailed,
    944327,                  !- Name
    ,                        !- Transmittance Schedule Name
    4,                       !- Number of Vertices
    5.000000000000,          !- Vertex 1 X-coordinate {m}
    -11.500000000000,        !- Vertex 1 Y-coordinate {m}
    15.450000000000,         !- Vertex 1 Z-coordinate {m}
    5.000000000000,          !- Vertex 2 X-coordinate {m}
    -11.500000000000,        !- Vertex 2 Y-coordinate {m}
    0.000000000000,          !- Vertex 2 Z-coordinate {m}
    5.000000000000,          !- Vertex 3 X-coordinate {m}
    -18.000000000000,        !- Vertex 3 Y-coordinate {m}
    0.000000000000,          !- Vertex 3 Z-coordinate {m}
    5.000000000000,          !- Vertex 4 X-coordinate {m}
    -18.000000000000,        !- Vertex 4 Y-coordinate {m}
    15.450000000000;         !- Vertex 4 Z-coordinate {m}

Shading:Building:Detailed,
    8A5731,                  !- Name
    ,                        !- Transmittance Schedule Name
    4,                       !- Number of Vertices
    36.600000000000,         !- Vertex 1 X-coordinate {m}
    -11.500000000000,        !- Vertex 1 Y-coordinate {m}
    15.450000000000,         !- Vertex 1 Z-coordinate {m}
    36.600000000000,         !- Vertex 2 X-coordinate {m}
    -11.500000000000,        !- Vertex 2 Y-coordinate {m}
    0.000000000000,          !- Vertex 2 Z-coordinate {m}
    5.000000000000,          !- Vertex 3 X-coordinate {m}
    -11.500000000000,        !- Vertex 3 Y-coordinate {m}
    0.000000000000,          !- Vertex 3 Z-coordinate {m}
    5.000000000000,          !- Vertex 4 X-coordinate {m}
    -11.500000000000,        !- Vertex 4 Y-coordinate {m}
    15.450000000000;         !- Vertex 4 Z-coordinate {m}

Shading:Building:Detailed,
    ED1974,                  !- Name
    ,                        !- Transmittance Schedule Name
    4,                       !- Number of Vertices
    36.600000000000,         !- Vertex 1 X-coordinate {m}
    -18.000000000000,        !- Vertex 1 Y-coordinate {m}
    15.450000000000,         !- Vertex 1 Z-coordinate {m}
    36.600000000000,         !- Vertex 2 X-coordinate {m}
    -18.000000000000,        !- Vertex 2 Y-coordinate {m}
    0.000000000000,          !- Vertex 2 Z-coordinate {m}
    36.600000000000,         !- Vertex 3 X-coordinate {m}
    -11.500000000000,        !- Vertex 3 Y-coordinate {m}
    0.000000000000,          !- Vertex 3 Z-coordinate {m}
    36.600000000000,         !- Vertex 4 X-coordinate {m}
    -11.500000000000,        !- Vertex 4 Y-coordinate {m}
    15.450000000000;         !- Vertex 4 Z-coordinate {m}

Shading:Building:Detailed,
    B5741C,                  !- Name
    ,                        !- Transmittance Schedule Name
    4,                       !- Number of Vertices
    5.000000000000,          !- Vertex 1 X-coordinate {m}
    -18.000000000000,        !- Vertex 1 Y-coordinate {m}
    15.450000000000,         !- Vertex 1 Z-coordinate {m}
    5.000000000000,          !- Vertex 2 X-coordinate {m}
    -18.000000000000,        !- Vertex 2 Y-coordinate {m}
    0.000000000000,          !- Vertex 2 Z-coordinate {m}
    36.600000000000,         !- Vertex 3 X-coordinate {m}
    -18.000000000000,        !- Vertex 3 Y-coordinate {m}
    0.000000000000,          !- Vertex 3 Z-coordinate {m}
    36.600000000000,         !- Vertex 4 X-coordinate {m}
    -18.000000000000,        !- Vertex 4 Y-coordinate {m}
    15.450000000000;         !- Vertex 4 Z-coordinate {m}

Shading:Building:Detailed,
    C0D469,                  !- Name
    ,                        !- Transmittance Schedule Name
    4,                       !- Number of Vertices
    36.600000000000,         !- Vertex 1 X-coordinate {m}
    -18.000000000000,        !- Vertex 1 Y-coordinate {m}
    15.450000000000,         !- Vertex 1 Z-coordinate {m}
    36.600000000000,         !- Vertex 2 X-coordinate {m}
    -11.500000000000,        !- Vertex 2 Y-coordinate {m}
    15.450000000000,         !- Vertex 2 Z-coordinate {m}
    5.000000000000,          !- Vertex 3 X-coordinate {m}
    -11.500000000000,        !- Vertex 3 Y-coordinate {m}
    15.450000000000,         !- Vertex 3 Z-coordinate {m}
    5.000000000000,          !- Vertex 4 X-coordinate {m}
    -18.000000000000,        !- Vertex 4 Y-coordinate {m}
    15.450000000000;         !- Vertex 4 Z-coordinate {m}

Shading:Building:Detailed,
    6FEFC7,                  !- Name
    ,                        !- Transmittance Schedule Name
    4,                       !- Number of Vertices
    -31.600000000000,        !- Vertex 1 X-coordinate {m}
    -18.000000000000,        !- Vertex 1 Y-coordinate {m}
    0.000000000000,          !- Vertex 1 Z-coordinate {m}
    -31.600000000000,        !- Vertex 2 X-coordinate {m}
    -11.500000000000,        !- Vertex 2 Y-coordinate {m}
    0.000000000000,          !- Vertex 2 Z-coordinate {m}
    0.000000000000,          !- Vertex 3 X-coordinate {m}
    -11.500000000000,        !- Vertex 3 Y-coordinate {m}
    0.000000000000,          !- Vertex 3 Z-coordinate {m}
    0.000000000000,          !- Vertex 4 X-coordinate {m}
    -18.000000000000,        !- Vertex 4 Y-coordinate {m}
    0.000000000000;          !- Vertex 4 Z-coordinate {m}

Shading:Building:Detailed,
    879112,                  !- Name
    ,                        !- Transmittance Schedule Name
    4,                       !- Number of Vertices
    -31.600000000000,        !- Vertex 1 X-coordinate {m}
    -11.500000000000,        !- Vertex 1 Y-coordinate {m}
    15.450000000000,         !- Vertex 1 Z-coordinate {m}
    -31.600000000000,        !- Vertex 2 X-coordinate {m}
    -11.500000000000,        !- Vertex 2 Y-coordinate {m}
    0.000000000000,          !- Vertex 2 Z-coordinate {m}
    -31.600000000000,        !- Vertex 3 X-coordinate {m}
    -18.000000000000,        !- Vertex 3 Y-coordinate {m}
    0.000000000000,          !- Vertex 3 Z-coordinate {m}
    -31.600000000000,        !- Vertex 4 X-coordinate {m}
    -18.000000000000,        !- Vertex 4 Y-coordinate {m}
    15.450000000000;         !- Vertex 4 Z-coordinate {m}

Shading:Building:Detailed,
    ADB46D,                  !- Name
    ,                        !- Transmittance Schedule Name
    4,                       !- Number of Vertices
    0.000000000000,          !- Vertex 1 X-coordinate {m}
    -11.500000000000,        !- Vertex 1 Y-coordinate {m}
    15.450000000000,         !- Vertex 1 Z-coordinate {m}
    0.000000000000,          !- Vertex 2 X-coordinate {m}
    -11.500000000000,        !- Vertex 2 Y-coordinate {m}
    0.000000000000,          !- Vertex 2 Z-coordinate {m}
    -31.600000000000,        !- Vertex 3 X-coordinate {m}
    -11.500000000000,        !- Vertex 3 Y-coordinate {m}
    0.000000000000,          !- Vertex 3 Z-coordinate {m}
    -31.600000000000,        !- Vertex 4 X-coordinate {m}
    -11.500000000000,        !- Vertex 4 Y-coordinate {m}
    15.450000000000;         !- Vertex 4 Z-coordinate {m}

Shading:Building:Detailed,
    744DD3,                  !- Name
    ,                        !- Transmittance Schedule Name
    4,                       !- Number of Vertices
    0.000000000000,          !- Vertex 1 X-coordinate {m}
    -18.000000000000,        !- Vertex 1 Y-coordinate {m}
    15.450000000000,         !- Vertex 1 Z-coordinate {m}
    0.000000000000,          !- Vertex 2 X-coordinate {m}
    -18.000000000000,        !- Vertex 2 Y-coordinate {m}
    0.000000000000,          !- Vertex 2 Z-coordinate {m}
    0.000000000000,          !- Vertex 3 X-coordinate {m}
    -11.500000000000,        !- Vertex 3 Y-coordinate {m}
    0.000000000000,          !- Vertex 3 Z-coordinate {m}
    0.000000000000,          !- Vertex 4 X-coordinate {m}
    -11.500000000000,        !- Vertex 4 Y-coordinate {m}
    15.450000000000;         !- Vertex 4 Z-coordinate {m}

Shading:Building:Detailed,
    DA1E29,                  !- Name
    ,                        !- Transmittance Schedule Name
    4,                       !- Number of Vertices
    -31.600000000000,        !- Vertex 1 X-coordinate {m}
    -18.000000000000,        !- Vertex 1 Y-coordinate {m}
    15.450000000000,         !- Vertex 1 Z-coordinate {m}
    -31.600000000000,        !- Vertex 2 X-coordinate {m}
    -18.000000000000,        !- Vertex 2 Y-coordinate {m}
    0.000000000000,          !- Vertex 2 Z-coordinate {m}
    0.000000000000,          !- Vertex 3 X-coordinate {m}
    -18.000000000000,        !- Vertex 3 Y-coordinate {m}
    0.000000000000,          !- Vertex 3 Z-coordinate {m}
    0.000000000000,          !- Vertex 4 X-coordinate {m}
    -18.000000000000,        !- Vertex 4 Y-coordinate {m}
    15.450000000000;         !- Vertex 4 Z-coordinate {m}

Shading:Building:Detailed,
    26D573,                  !- Name
    ,                        !- Transmittance Schedule Name
    4,                       !- Number of Vertices
    0.000000000000,          !- Vertex 1 X-coordinate {m}
    -18.000000000000,        !- Vertex 1 Y-coordinate {m}
    15.450000000000,         !- Vertex 1 Z-coordinate {m}
    0.000000000000,          !- Vertex 2 X-coordinate {m}
    -11.500000000000,        !- Vertex 2 Y-coordinate {m}
    15.450000000000,         !- Vertex 2 Z-coordinate {m}
    -31.600000000000,        !- Vertex 3 X-coordinate {m}
    -11.500000000000,        !- Vertex 3 Y-coordinate {m}
    15.450000000000,         !- Vertex 3 Z-coordinate {m}
    -31.600000000000,        !- Vertex 4 X-coordinate {m}
    -18.000000000000,        !- Vertex 4 Y-coordinate {m}
    15.450000000000;         !- Vertex 4 Z-coordinate {m}


!-   ===========  ALL OBJECTS IN CLASS: PEOPLE ===========

People,
    Ocupation,               !- Name
    TodosAps,                !- Zone or ZoneList Name
    TLB Occupation Schedule, !- Number of People Schedule Name
    People,                  !- Number of People Calculation Method
    4,                       !- Number of People
    ,                        !- People per Zone Floor Area {person/m2}
    ,                        !- Zone Floor Area per Person {m2/person}
    0.3,                     !- Fraction Radiant
    autocalculate,           !- Sensible Heat Fraction
    TBL Activities,          !- Activity Level Schedule Name
    3.82e-08,                !- Carbon Dioxide Generation Rate {m3/s-W}
    No,                      !- Enable ASHRAE 55 Comfort Warnings
    ZoneAveraged,            !- Mean Radiant Temperature Calculation Type
    ,                        !- Surface Name/Angle Factor List Name
    ,                        !- Work Efficiency Schedule Name
    DynamicClothingModelASHRAE55,  !- Clothing Insulation Calculation Method
    ,                        !- Clothing Insulation Calculation Method Schedule Name
    ,                        !- Clothing Insulation Schedule Name
    ,                        !- Air Velocity Schedule Name
    AdaptiveASH55;           !- Thermal Comfort Model 1 Type


!-   ===========  ALL OBJECTS IN CLASS: LIGHTS ===========

Lights,
    Ilumination,             !- Name
    TodosAps,                !- Zone or ZoneList Name
    TLB Ilumination Schedule,!- Schedule Name
    Watts/Area,              !- Design Level Calculation Method
    ,                        !- Lighting Level {W}
    5,                       !- Watts per Zone Floor Area {W/m2}
    ,                        !- Watts per Person {W/person}
    0,                       !- Return Air Fraction
    0.32,                    !- Fraction Radiant
    0.23,                    !- Fraction Visible
    0,                       !- Fraction Replaceable
    General,                 !- End-Use Subcategory
    No;                      !- Return Air Fraction Calculated from Plenum Temperature


!-   ===========  ALL OBJECTS IN CLASS: ELECTRICEQUIPMENT ===========

ElectricEquipment,
    Equipments,              !- Name
    TodosAps,                !- Zone or ZoneList Name
    TLB INI-R Equipments,    !- Schedule Name
    EquipmentLevel,          !- Design Level Calculation Method
    120,                     !- Design Level {W}
    0,                       !- Watts per Zone Floor Area {W/m2}
    ,                        !- Watts per Person {W/person}
    0,                       !- Fraction Latent
    0.3,                     !- Fraction Radiant
    0,                       !- Fraction Lost
    General;                 !- End-Use Subcategory


!-   ===========  ALL OBJECTS IN CLASS: AIRFLOWNETWORK:SIMULATIONCONTROL ===========

AirflowNetwork:SimulationControl,
    INI-R,                   !- Name
    MultizoneWithoutDistribution,  !- AirflowNetwork Control
    SurfaceAverageCalculation,  !- Wind Pressure Coefficient Type
    OpeningHeight,           !- Height Selection for Local Wind Pressure Calculation
    LowRise,                 !- Building Type
    500,                     !- Maximum Number of Iterations {dimensionless}
    LinearInitializationMethod,  !- Initialization Type
    0.0001,                  !- Relative Airflow Convergence Tolerance {dimensionless}
    0.000001,                !- Absolute Airflow Convergence Tolerance {kg/s}
    -.5,                     !- Convergence Acceleration Limit {dimensionless}
    0,                       !- Azimuth Angle of Long Axis of Building {deg}
    0.2;                     !- Ratio of Building Width Along Short Axis to Width Along Long Axis


!-   ===========  ALL OBJECTS IN CLASS: AIRFLOWNETWORK:MULTIZONE:ZONE ===========

AirflowNetwork:MultiZone:Zone,
    APTO01_P1,               !- Zone Name
    Temperature,             !- Ventilation Control Mode
    VN_19,                   !- Ventilation Control Zone Temperature Setpoint Schedule Name
    0.45,                    !- Minimum Venting Open Factor {dimensionless}
    0,                       !- Indoor and Outdoor Temperature Difference Lower Limit For Maximum Venting Open Factor {deltaC}
    5,                       !- Indoor and Outdoor Temperature Difference Upper Limit for Minimum Venting Open Factor {deltaC}
    0,                       !- Indoor and Outdoor Enthalpy Difference Lower Limit For Maximum Venting Open Factor {deltaJ/kg}
    300000,                  !- Indoor and Outdoor Enthalpy Difference Upper Limit for Minimum Venting Open Factor {deltaJ/kg}
    TLB Occupation Schedule, !- Venting Availability Schedule Name
    Standard,                !- Single Sided Wind Pressure Coefficient Algorithm
    31.6;                    !- Facade Width {m}

AirflowNetwork:MultiZone:Zone,
    APTO02_P1,               !- Zone Name
    Temperature,             !- Ventilation Control Mode
    VN_19,                   !- Ventilation Control Zone Temperature Setpoint Schedule Name
    0.45,                    !- Minimum Venting Open Factor {dimensionless}
    0,                       !- Indoor and Outdoor Temperature Difference Lower Limit For Maximum Venting Open Factor {deltaC}
    5,                       !- Indoor and Outdoor Temperature Difference Upper Limit for Minimum Venting Open Factor {deltaC}
    0,                       !- Indoor and Outdoor Enthalpy Difference Lower Limit For Maximum Venting Open Factor {deltaJ/kg}
    300000,                  !- Indoor and Outdoor Enthalpy Difference Upper Limit for Minimum Venting Open Factor {deltaJ/kg}
    TLB Occupation Schedule, !- Venting Availability Schedule Name
    Standard,                !- Single Sided Wind Pressure Coefficient Algorithm
    31.6;                    !- Facade Width {m}

AirflowNetwork:MultiZone:Zone,
    APTO03_P1,               !- Zone Name
    Temperature,             !- Ventilation Control Mode
    VN_19,                   !- Ventilation Control Zone Temperature Setpoint Schedule Name
    0.45,                    !- Minimum Venting Open Factor {dimensionless}
    0,                       !- Indoor and Outdoor Temperature Difference Lower Limit For Maximum Venting Open Factor {deltaC}
    5,                       !- Indoor and Outdoor Temperature Difference Upper Limit for Minimum Venting Open Factor {deltaC}
    0,                       !- Indoor and Outdoor Enthalpy Difference Lower Limit For Maximum Venting Open Factor {deltaJ/kg}
    300000,                  !- Indoor and Outdoor Enthalpy Difference Upper Limit for Minimum Venting Open Factor {deltaJ/kg}
    TLB Occupation Schedule, !- Venting Availability Schedule Name
    Standard,                !- Single Sided Wind Pressure Coefficient Algorithm
    31.6;                    !- Facade Width {m}

AirflowNetwork:MultiZone:Zone,
    APTO04_P1,               !- Zone Name
    Temperature,             !- Ventilation Control Mode
    VN_19,                   !- Ventilation Control Zone Temperature Setpoint Schedule Name
    0.45,                    !- Minimum Venting Open Factor {dimensionless}
    0,                       !- Indoor and Outdoor Temperature Difference Lower Limit For Maximum Venting Open Factor {deltaC}
    5,                       !- Indoor and Outdoor Temperature Difference Upper Limit for Minimum Venting Open Factor {deltaC}
    0,                       !- Indoor and Outdoor Enthalpy Difference Lower Limit For Maximum Venting Open Factor {deltaJ/kg}
    300000,                  !- Indoor and Outdoor Enthalpy Difference Upper Limit for Minimum Venting Open Factor {deltaJ/kg}
    TLB Occupation Schedule, !- Venting Availability Schedule Name
    Standard,                !- Single Sided Wind Pressure Coefficient Algorithm
    31.6;                    !- Facade Width {m}

AirflowNetwork:MultiZone:Zone,
    APTO01_P2,               !- Zone Name
    Temperature,             !- Ventilation Control Mode
    VN_19,                   !- Ventilation Control Zone Temperature Setpoint Schedule Name
    0.45,                    !- Minimum Venting Open Factor {dimensionless}
    0,                       !- Indoor and Outdoor Temperature Difference Lower Limit For Maximum Venting Open Factor {deltaC}
    5,                       !- Indoor and Outdoor Temperature Difference Upper Limit for Minimum Venting Open Factor {deltaC}
    0,                       !- Indoor and Outdoor Enthalpy Difference Lower Limit For Maximum Venting Open Factor {deltaJ/kg}
    300000,                  !- Indoor and Outdoor Enthalpy Difference Upper Limit for Minimum Venting Open Factor {deltaJ/kg}
    TLB Occupation Schedule, !- Venting Availability Schedule Name
    Standard,                !- Single Sided Wind Pressure Coefficient Algorithm
    31.6;                    !- Facade Width {m}

AirflowNetwork:MultiZone:Zone,
    APTO02_P2,               !- Zone Name
    Temperature,             !- Ventilation Control Mode
    VN_19,                   !- Ventilation Control Zone Temperature Setpoint Schedule Name
    0.45,                    !- Minimum Venting Open Factor {dimensionless}
    0,                       !- Indoor and Outdoor Temperature Difference Lower Limit For Maximum Venting Open Factor {deltaC}
    5,                       !- Indoor and Outdoor Temperature Difference Upper Limit for Minimum Venting Open Factor {deltaC}
    0,                       !- Indoor and Outdoor Enthalpy Difference Lower Limit For Maximum Venting Open Factor {deltaJ/kg}
    300000,                  !- Indoor and Outdoor Enthalpy Difference Upper Limit for Minimum Venting Open Factor {deltaJ/kg}
    TLB Occupation Schedule, !- Venting Availability Schedule Name
    Standard,                !- Single Sided Wind Pressure Coefficient Algorithm
    31.6;                    !- Facade Width {m}

AirflowNetwork:MultiZone:Zone,
    APTO03_P2,               !- Zone Name
    Temperature,             !- Ventilation Control Mode
    VN_19,                   !- Ventilation Control Zone Temperature Setpoint Schedule Name
    0.45,                    !- Minimum Venting Open Factor {dimensionless}
    0,                       !- Indoor and Outdoor Temperature Difference Lower Limit For Maximum Venting Open Factor {deltaC}
    5,                       !- Indoor and Outdoor Temperature Difference Upper Limit for Minimum Venting Open Factor {deltaC}
    0,                       !- Indoor and Outdoor Enthalpy Difference Lower Limit For Maximum Venting Open Factor {deltaJ/kg}
    300000,                  !- Indoor and Outdoor Enthalpy Difference Upper Limit for Minimum Venting Open Factor {deltaJ/kg}
    TLB Occupation Schedule, !- Venting Availability Schedule Name
    Standard,                !- Single Sided Wind Pressure Coefficient Algorithm
    31.6;                    !- Facade Width {m}

AirflowNetwork:MultiZone:Zone,
    APTO04_P2,               !- Zone Name
    Temperature,             !- Ventilation Control Mode
    VN_19,                   !- Ventilation Control Zone Temperature Setpoint Schedule Name
    0.45,                    !- Minimum Venting Open Factor {dimensionless}
    0,                       !- Indoor and Outdoor Temperature Difference Lower Limit For Maximum Venting Open Factor {deltaC}
    5,                       !- Indoor and Outdoor Temperature Difference Upper Limit for Minimum Venting Open Factor {deltaC}
    0,                       !- Indoor and Outdoor Enthalpy Difference Lower Limit For Maximum Venting Open Factor {deltaJ/kg}
    300000,                  !- Indoor and Outdoor Enthalpy Difference Upper Limit for Minimum Venting Open Factor {deltaJ/kg}
    TLB Occupation Schedule, !- Venting Availability Schedule Name
    Standard,                !- Single Sided Wind Pressure Coefficient Algorithm
    31.6;                    !- Facade Width {m}

AirflowNetwork:MultiZone:Zone,
    APTO01_P3,               !- Zone Name
    Temperature,             !- Ventilation Control Mode
    VN_19,                   !- Ventilation Control Zone Temperature Setpoint Schedule Name
    0.45,                    !- Minimum Venting Open Factor {dimensionless}
    0,                       !- Indoor and Outdoor Temperature Difference Lower Limit For Maximum Venting Open Factor {deltaC}
    5,                       !- Indoor and Outdoor Temperature Difference Upper Limit for Minimum Venting Open Factor {deltaC}
    0,                       !- Indoor and Outdoor Enthalpy Difference Lower Limit For Maximum Venting Open Factor {deltaJ/kg}
    300000,                  !- Indoor and Outdoor Enthalpy Difference Upper Limit for Minimum Venting Open Factor {deltaJ/kg}
    TLB Occupation Schedule, !- Venting Availability Schedule Name
    Standard,                !- Single Sided Wind Pressure Coefficient Algorithm
    31.6;                    !- Facade Width {m}

AirflowNetwork:MultiZone:Zone,
    APTO02_P3,               !- Zone Name
    Temperature,             !- Ventilation Control Mode
    VN_19,                   !- Ventilation Control Zone Temperature Setpoint Schedule Name
    0.45,                    !- Minimum Venting Open Factor {dimensionless}
    0,                       !- Indoor and Outdoor Temperature Difference Lower Limit For Maximum Venting Open Factor {deltaC}
    5,                       !- Indoor and Outdoor Temperature Difference Upper Limit for Minimum Venting Open Factor {deltaC}
    0,                       !- Indoor and Outdoor Enthalpy Difference Lower Limit For Maximum Venting Open Factor {deltaJ/kg}
    300000,                  !- Indoor and Outdoor Enthalpy Difference Upper Limit for Minimum Venting Open Factor {deltaJ/kg}
    TLB Occupation Schedule, !- Venting Availability Schedule Name
    Standard,                !- Single Sided Wind Pressure Coefficient Algorithm
    31.6;                    !- Facade Width {m}

AirflowNetwork:MultiZone:Zone,
    APTO03_P3,               !- Zone Name
    Temperature,             !- Ventilation Control Mode
    VN_19,                   !- Ventilation Control Zone Temperature Setpoint Schedule Name
    0.45,                    !- Minimum Venting Open Factor {dimensionless}
    0,                       !- Indoor and Outdoor Temperature Difference Lower Limit For Maximum Venting Open Factor {deltaC}
    5,                       !- Indoor and Outdoor Temperature Difference Upper Limit for Minimum Venting Open Factor {deltaC}
    0,                       !- Indoor and Outdoor Enthalpy Difference Lower Limit For Maximum Venting Open Factor {deltaJ/kg}
    300000,                  !- Indoor and Outdoor Enthalpy Difference Upper Limit for Minimum Venting Open Factor {deltaJ/kg}
    TLB Occupation Schedule, !- Venting Availability Schedule Name
    Standard,                !- Single Sided Wind Pressure Coefficient Algorithm
    31.6;                    !- Facade Width {m}

AirflowNetwork:MultiZone:Zone,
    APTO04_P3,               !- Zone Name
    Temperature,             !- Ventilation Control Mode
    VN_19,                   !- Ventilation Control Zone Temperature Setpoint Schedule Name
    0.45,                    !- Minimum Venting Open Factor {dimensionless}
    0,                       !- Indoor and Outdoor Temperature Difference Lower Limit For Maximum Venting Open Factor {deltaC}
    5,                       !- Indoor and Outdoor Temperature Difference Upper Limit for Minimum Venting Open Factor {deltaC}
    0,                       !- Indoor and Outdoor Enthalpy Difference Lower Limit For Maximum Venting Open Factor {deltaJ/kg}
    300000,                  !- Indoor and Outdoor Enthalpy Difference Upper Limit for Minimum Venting Open Factor {deltaJ/kg}
    TLB Occupation Schedule, !- Venting Availability Schedule Name
    Standard,                !- Single Sided Wind Pressure Coefficient Algorithm
    31.6;                    !- Facade Width {m}

AirflowNetwork:MultiZone:Zone,
    APTO01_P4,               !- Zone Name
    Temperature,             !- Ventilation Control Mode
    VN_19,                   !- Ventilation Control Zone Temperature Setpoint Schedule Name
    0.45,                    !- Minimum Venting Open Factor {dimensionless}
    0,                       !- Indoor and Outdoor Temperature Difference Lower Limit For Maximum Venting Open Factor {deltaC}
    5,                       !- Indoor and Outdoor Temperature Difference Upper Limit for Minimum Venting Open Factor {deltaC}
    0,                       !- Indoor and Outdoor Enthalpy Difference Lower Limit For Maximum Venting Open Factor {deltaJ/kg}
    300000,                  !- Indoor and Outdoor Enthalpy Difference Upper Limit for Minimum Venting Open Factor {deltaJ/kg}
    TLB Occupation Schedule, !- Venting Availability Schedule Name
    Standard,                !- Single Sided Wind Pressure Coefficient Algorithm
    31.6;                    !- Facade Width {m}

AirflowNetwork:MultiZone:Zone,
    APTO02_P4,               !- Zone Name
    Temperature,             !- Ventilation Control Mode
    VN_19,                   !- Ventilation Control Zone Temperature Setpoint Schedule Name
    0.45,                    !- Minimum Venting Open Factor {dimensionless}
    0,                       !- Indoor and Outdoor Temperature Difference Lower Limit For Maximum Venting Open Factor {deltaC}
    5,                       !- Indoor and Outdoor Temperature Difference Upper Limit for Minimum Venting Open Factor {deltaC}
    0,                       !- Indoor and Outdoor Enthalpy Difference Lower Limit For Maximum Venting Open Factor {deltaJ/kg}
    300000,                  !- Indoor and Outdoor Enthalpy Difference Upper Limit for Minimum Venting Open Factor {deltaJ/kg}
    TLB Occupation Schedule, !- Venting Availability Schedule Name
    Standard,                !- Single Sided Wind Pressure Coefficient Algorithm
    31.6;                    !- Facade Width {m}

AirflowNetwork:MultiZone:Zone,
    APTO03_P4,               !- Zone Name
    Temperature,             !- Ventilation Control Mode
    VN_19,                   !- Ventilation Control Zone Temperature Setpoint Schedule Name
    0.45,                    !- Minimum Venting Open Factor {dimensionless}
    0,                       !- Indoor and Outdoor Temperature Difference Lower Limit For Maximum Venting Open Factor {deltaC}
    5,                       !- Indoor and Outdoor Temperature Difference Upper Limit for Minimum Venting Open Factor {deltaC}
    0,                       !- Indoor and Outdoor Enthalpy Difference Lower Limit For Maximum Venting Open Factor {deltaJ/kg}
    300000,                  !- Indoor and Outdoor Enthalpy Difference Upper Limit for Minimum Venting Open Factor {deltaJ/kg}
    TLB Occupation Schedule, !- Venting Availability Schedule Name
    Standard,                !- Single Sided Wind Pressure Coefficient Algorithm
    31.6;                    !- Facade Width {m}

AirflowNetwork:MultiZone:Zone,
    APTO04_P4,               !- Zone Name
    Temperature,             !- Ventilation Control Mode
    VN_19,                   !- Ventilation Control Zone Temperature Setpoint Schedule Name
    0.45,                    !- Minimum Venting Open Factor {dimensionless}
    0,                       !- Indoor and Outdoor Temperature Difference Lower Limit For Maximum Venting Open Factor {deltaC}
    5,                       !- Indoor and Outdoor Temperature Difference Upper Limit for Minimum Venting Open Factor {deltaC}
    0,                       !- Indoor and Outdoor Enthalpy Difference Lower Limit For Maximum Venting Open Factor {deltaJ/kg}
    300000,                  !- Indoor and Outdoor Enthalpy Difference Upper Limit for Minimum Venting Open Factor {deltaJ/kg}
    TLB Occupation Schedule, !- Venting Availability Schedule Name
    Standard,                !- Single Sided Wind Pressure Coefficient Algorithm
    31.6;                    !- Facade Width {m}

AirflowNetwork:MultiZone:Zone,
    APTO01_P5,               !- Zone Name
    Temperature,             !- Ventilation Control Mode
    VN_19,                   !- Ventilation Control Zone Temperature Setpoint Schedule Name
    0.45,                    !- Minimum Venting Open Factor {dimensionless}
    0,                       !- Indoor and Outdoor Temperature Difference Lower Limit For Maximum Venting Open Factor {deltaC}
    5,                       !- Indoor and Outdoor Temperature Difference Upper Limit for Minimum Venting Open Factor {deltaC}
    0,                       !- Indoor and Outdoor Enthalpy Difference Lower Limit For Maximum Venting Open Factor {deltaJ/kg}
    300000,                  !- Indoor and Outdoor Enthalpy Difference Upper Limit for Minimum Venting Open Factor {deltaJ/kg}
    TLB Occupation Schedule, !- Venting Availability Schedule Name
    Standard,                !- Single Sided Wind Pressure Coefficient Algorithm
    31.6;                    !- Facade Width {m}

AirflowNetwork:MultiZone:Zone,
    APTO02_P5,               !- Zone Name
    Temperature,             !- Ventilation Control Mode
    VN_19,                   !- Ventilation Control Zone Temperature Setpoint Schedule Name
    0.45,                    !- Minimum Venting Open Factor {dimensionless}
    0,                       !- Indoor and Outdoor Temperature Difference Lower Limit For Maximum Venting Open Factor {deltaC}
    5,                       !- Indoor and Outdoor Temperature Difference Upper Limit for Minimum Venting Open Factor {deltaC}
    0,                       !- Indoor and Outdoor Enthalpy Difference Lower Limit For Maximum Venting Open Factor {deltaJ/kg}
    300000,                  !- Indoor and Outdoor Enthalpy Difference Upper Limit for Minimum Venting Open Factor {deltaJ/kg}
    TLB Occupation Schedule, !- Venting Availability Schedule Name
    Standard,                !- Single Sided Wind Pressure Coefficient Algorithm
    31.6;                    !- Facade Width {m}

AirflowNetwork:MultiZone:Zone,
    APTO03_P5,               !- Zone Name
    Temperature,             !- Ventilation Control Mode
    VN_19,                   !- Ventilation Control Zone Temperature Setpoint Schedule Name
    0.45,                    !- Minimum Venting Open Factor {dimensionless}
    0,                       !- Indoor and Outdoor Temperature Difference Lower Limit For Maximum Venting Open Factor {deltaC}
    5,                       !- Indoor and Outdoor Temperature Difference Upper Limit for Minimum Venting Open Factor {deltaC}
    0,                       !- Indoor and Outdoor Enthalpy Difference Lower Limit For Maximum Venting Open Factor {deltaJ/kg}
    300000,                  !- Indoor and Outdoor Enthalpy Difference Upper Limit for Minimum Venting Open Factor {deltaJ/kg}
    TLB Occupation Schedule, !- Venting Availability Schedule Name
    Standard,                !- Single Sided Wind Pressure Coefficient Algorithm
    31.6;                    !- Facade Width {m}

AirflowNetwork:MultiZone:Zone,
    APTO04_P5,               !- Zone Name
    Temperature,             !- Ventilation Control Mode
    VN_19,                   !- Ventilation Control Zone Temperature Setpoint Schedule Name
    0.45,                    !- Minimum Venting Open Factor {dimensionless}
    0,                       !- Indoor and Outdoor Temperature Difference Lower Limit For Maximum Venting Open Factor {deltaC}
    5,                       !- Indoor and Outdoor Temperature Difference Upper Limit for Minimum Venting Open Factor {deltaC}
    0,                       !- Indoor and Outdoor Enthalpy Difference Lower Limit For Maximum Venting Open Factor {deltaJ/kg}
    300000,                  !- Indoor and Outdoor Enthalpy Difference Upper Limit for Minimum Venting Open Factor {deltaJ/kg}
    TLB Occupation Schedule, !- Venting Availability Schedule Name
    Standard,                !- Single Sided Wind Pressure Coefficient Algorithm
    31.6;                    !- Facade Width {m}


!-   ===========  ALL OBJECTS IN CLASS: AIRFLOWNETWORK:MULTIZONE:SURFACE ===========

AirflowNetwork:MultiZone:Surface,
    P1_W01,                  !- Surface Name
    Windows,                 !- Leakage Component Name
    ,                        !- External Node Name
    0.45,                    !- Window/Door Opening Factor, or Crack Factor {dimensionless}
    ZoneLevel,               !- Ventilation Control Mode
    VN_19,                   !- Ventilation Control Zone Temperature Setpoint Schedule Name
    0.45,                    !- Minimum Venting Open Factor {dimensionless}
    0,                       !- Indoor and Outdoor Temperature Difference Lower Limit For Maximum Venting Open Factor {deltaC}
    5,                       !- Indoor and Outdoor Temperature Difference Upper Limit for Minimum Venting Open Factor {deltaC}
    0,                       !- Indoor and Outdoor Enthalpy Difference Lower Limit For Maximum Venting Open Factor {deltaJ/kg}
    300000,                  !- Indoor and Outdoor Enthalpy Difference Upper Limit for Minimum Venting Open Factor {deltaJ/kg}
    TLB Occupation Schedule, !- Venting Availability Schedule Name
    ,                        !- Occupant Ventilation Control Name
    PolygonHeight,           !- Equivalent Rectangle Method
    1;                       !- Equivalent Rectangle Aspect Ratio {dimensionless}

AirflowNetwork:MultiZone:Surface,
    P1_W02,                  !- Surface Name
    Windows,                 !- Leakage Component Name
    ,                        !- External Node Name
    0.45,                    !- Window/Door Opening Factor, or Crack Factor {dimensionless}
    ZoneLevel,               !- Ventilation Control Mode
    VN_19,                   !- Ventilation Control Zone Temperature Setpoint Schedule Name
    0.45,                    !- Minimum Venting Open Factor {dimensionless}
    0,                       !- Indoor and Outdoor Temperature Difference Lower Limit For Maximum Venting Open Factor {deltaC}
    5,                       !- Indoor and Outdoor Temperature Difference Upper Limit for Minimum Venting Open Factor {deltaC}
    0,                       !- Indoor and Outdoor Enthalpy Difference Lower Limit For Maximum Venting Open Factor {deltaJ/kg}
    300000,                  !- Indoor and Outdoor Enthalpy Difference Upper Limit for Minimum Venting Open Factor {deltaJ/kg}
    TLB Occupation Schedule, !- Venting Availability Schedule Name
    ,                        !- Occupant Ventilation Control Name
    PolygonHeight,           !- Equivalent Rectangle Method
    1;                       !- Equivalent Rectangle Aspect Ratio {dimensionless}

AirflowNetwork:MultiZone:Surface,
    P1_W03 (Kitchen),        !- Surface Name
    Windows,                 !- Leakage Component Name
    ,                        !- External Node Name
    0.45,                    !- Window/Door Opening Factor, or Crack Factor {dimensionless}
    ZoneLevel,               !- Ventilation Control Mode
    VN_19,                   !- Ventilation Control Zone Temperature Setpoint Schedule Name
    0.45,                    !- Minimum Venting Open Factor {dimensionless}
    0,                       !- Indoor and Outdoor Temperature Difference Lower Limit For Maximum Venting Open Factor {deltaC}
    5,                       !- Indoor and Outdoor Temperature Difference Upper Limit for Minimum Venting Open Factor {deltaC}
    0,                       !- Indoor and Outdoor Enthalpy Difference Lower Limit For Maximum Venting Open Factor {deltaJ/kg}
    300000,                  !- Indoor and Outdoor Enthalpy Difference Upper Limit for Minimum Venting Open Factor {deltaJ/kg}
    TLB Occupation Schedule, !- Venting Availability Schedule Name
    ,                        !- Occupant Ventilation Control Name
    PolygonHeight,           !- Equivalent Rectangle Method
    1;                       !- Equivalent Rectangle Aspect Ratio {dimensionless}

AirflowNetwork:MultiZone:Surface,
    P1_W04 (WC),             !- Surface Name
    Windows,                 !- Leakage Component Name
    ,                        !- External Node Name
    0.45,                    !- Window/Door Opening Factor, or Crack Factor {dimensionless}
    ZoneLevel,               !- Ventilation Control Mode
    VN_19,                   !- Ventilation Control Zone Temperature Setpoint Schedule Name
    0.45,                    !- Minimum Venting Open Factor {dimensionless}
    0,                       !- Indoor and Outdoor Temperature Difference Lower Limit For Maximum Venting Open Factor {deltaC}
    5,                       !- Indoor and Outdoor Temperature Difference Upper Limit for Minimum Venting Open Factor {deltaC}
    0,                       !- Indoor and Outdoor Enthalpy Difference Lower Limit For Maximum Venting Open Factor {deltaJ/kg}
    300000,                  !- Indoor and Outdoor Enthalpy Difference Upper Limit for Minimum Venting Open Factor {deltaJ/kg}
    TLB Occupation Schedule, !- Venting Availability Schedule Name
    ,                        !- Occupant Ventilation Control Name
    PolygonHeight,           !- Equivalent Rectangle Method
    1;                       !- Equivalent Rectangle Aspect Ratio {dimensionless}

AirflowNetwork:MultiZone:Surface,
    P1_W05 (Kitchen),        !- Surface Name
    Windows,                 !- Leakage Component Name
    ,                        !- External Node Name
    0.45,                    !- Window/Door Opening Factor, or Crack Factor {dimensionless}
    ZoneLevel,               !- Ventilation Control Mode
    VN_19,                   !- Ventilation Control Zone Temperature Setpoint Schedule Name
    0.45,                    !- Minimum Venting Open Factor {dimensionless}
    0,                       !- Indoor and Outdoor Temperature Difference Lower Limit For Maximum Venting Open Factor {deltaC}
    5,                       !- Indoor and Outdoor Temperature Difference Upper Limit for Minimum Venting Open Factor {deltaC}
    0,                       !- Indoor and Outdoor Enthalpy Difference Lower Limit For Maximum Venting Open Factor {deltaJ/kg}
    300000,                  !- Indoor and Outdoor Enthalpy Difference Upper Limit for Minimum Venting Open Factor {deltaJ/kg}
    TLB Occupation Schedule, !- Venting Availability Schedule Name
    ,                        !- Occupant Ventilation Control Name
    PolygonHeight,           !- Equivalent Rectangle Method
    1;                       !- Equivalent Rectangle Aspect Ratio {dimensionless}

AirflowNetwork:MultiZone:Surface,
    P1_W06,                  !- Surface Name
    Windows,                 !- Leakage Component Name
    ,                        !- External Node Name
    0.45,                    !- Window/Door Opening Factor, or Crack Factor {dimensionless}
    ZoneLevel,               !- Ventilation Control Mode
    VN_19,                   !- Ventilation Control Zone Temperature Setpoint Schedule Name
    0.45,                    !- Minimum Venting Open Factor {dimensionless}
    0,                       !- Indoor and Outdoor Temperature Difference Lower Limit For Maximum Venting Open Factor {deltaC}
    5,                       !- Indoor and Outdoor Temperature Difference Upper Limit for Minimum Venting Open Factor {deltaC}
    0,                       !- Indoor and Outdoor Enthalpy Difference Lower Limit For Maximum Venting Open Factor {deltaJ/kg}
    300000,                  !- Indoor and Outdoor Enthalpy Difference Upper Limit for Minimum Venting Open Factor {deltaJ/kg}
    TLB Occupation Schedule, !- Venting Availability Schedule Name
    ,                        !- Occupant Ventilation Control Name
    PolygonHeight,           !- Equivalent Rectangle Method
    1;                       !- Equivalent Rectangle Aspect Ratio {dimensionless}

AirflowNetwork:MultiZone:Surface,
    P1_W07,                  !- Surface Name
    Windows,                 !- Leakage Component Name
    ,                        !- External Node Name
    0.45,                    !- Window/Door Opening Factor, or Crack Factor {dimensionless}
    ZoneLevel,               !- Ventilation Control Mode
    VN_19,                   !- Ventilation Control Zone Temperature Setpoint Schedule Name
    0.45,                    !- Minimum Venting Open Factor {dimensionless}
    0,                       !- Indoor and Outdoor Temperature Difference Lower Limit For Maximum Venting Open Factor {deltaC}
    5,                       !- Indoor and Outdoor Temperature Difference Upper Limit for Minimum Venting Open Factor {deltaC}
    0,                       !- Indoor and Outdoor Enthalpy Difference Lower Limit For Maximum Venting Open Factor {deltaJ/kg}
    300000,                  !- Indoor and Outdoor Enthalpy Difference Upper Limit for Minimum Venting Open Factor {deltaJ/kg}
    TLB Occupation Schedule, !- Venting Availability Schedule Name
    ,                        !- Occupant Ventilation Control Name
    PolygonHeight,           !- Equivalent Rectangle Method
    1;                       !- Equivalent Rectangle Aspect Ratio {dimensionless}

AirflowNetwork:MultiZone:Surface,
    P1_W08 (Kitchen),        !- Surface Name
    Windows,                 !- Leakage Component Name
    ,                        !- External Node Name
    0.45,                    !- Window/Door Opening Factor, or Crack Factor {dimensionless}
    ZoneLevel,               !- Ventilation Control Mode
    VN_19,                   !- Ventilation Control Zone Temperature Setpoint Schedule Name
    0.45,                    !- Minimum Venting Open Factor {dimensionless}
    0,                       !- Indoor and Outdoor Temperature Difference Lower Limit For Maximum Venting Open Factor {deltaC}
    5,                       !- Indoor and Outdoor Temperature Difference Upper Limit for Minimum Venting Open Factor {deltaC}
    0,                       !- Indoor and Outdoor Enthalpy Difference Lower Limit For Maximum Venting Open Factor {deltaJ/kg}
    300000,                  !- Indoor and Outdoor Enthalpy Difference Upper Limit for Minimum Venting Open Factor {deltaJ/kg}
    TLB Occupation Schedule, !- Venting Availability Schedule Name
    ,                        !- Occupant Ventilation Control Name
    PolygonHeight,           !- Equivalent Rectangle Method
    1;                       !- Equivalent Rectangle Aspect Ratio {dimensionless}

AirflowNetwork:MultiZone:Surface,
    P1_W09 (WC),             !- Surface Name
    Windows,                 !- Leakage Component Name
    ,                        !- External Node Name
    0.45,                    !- Window/Door Opening Factor, or Crack Factor {dimensionless}
    ZoneLevel,               !- Ventilation Control Mode
    VN_19,                   !- Ventilation Control Zone Temperature Setpoint Schedule Name
    0.45,                    !- Minimum Venting Open Factor {dimensionless}
    0,                       !- Indoor and Outdoor Temperature Difference Lower Limit For Maximum Venting Open Factor {deltaC}
    5,                       !- Indoor and Outdoor Temperature Difference Upper Limit for Minimum Venting Open Factor {deltaC}
    0,                       !- Indoor and Outdoor Enthalpy Difference Lower Limit For Maximum Venting Open Factor {deltaJ/kg}
    300000,                  !- Indoor and Outdoor Enthalpy Difference Upper Limit for Minimum Venting Open Factor {deltaJ/kg}
    TLB Occupation Schedule, !- Venting Availability Schedule Name
    ,                        !- Occupant Ventilation Control Name
    PolygonHeight,           !- Equivalent Rectangle Method
    1;                       !- Equivalent Rectangle Aspect Ratio {dimensionless}

AirflowNetwork:MultiZone:Surface,
    P1_W10,                  !- Surface Name
    Windows,                 !- Leakage Component Name
    ,                        !- External Node Name
    0.45,                    !- Window/Door Opening Factor, or Crack Factor {dimensionless}
    ZoneLevel,               !- Ventilation Control Mode
    VN_19,                   !- Ventilation Control Zone Temperature Setpoint Schedule Name
    0.45,                    !- Minimum Venting Open Factor {dimensionless}
    0,                       !- Indoor and Outdoor Temperature Difference Lower Limit For Maximum Venting Open Factor {deltaC}
    5,                       !- Indoor and Outdoor Temperature Difference Upper Limit for Minimum Venting Open Factor {deltaC}
    0,                       !- Indoor and Outdoor Enthalpy Difference Lower Limit For Maximum Venting Open Factor {deltaJ/kg}
    300000,                  !- Indoor and Outdoor Enthalpy Difference Upper Limit for Minimum Venting Open Factor {deltaJ/kg}
    TLB Occupation Schedule, !- Venting Availability Schedule Name
    ,                        !- Occupant Ventilation Control Name
    PolygonHeight,           !- Equivalent Rectangle Method
    1;                       !- Equivalent Rectangle Aspect Ratio {dimensionless}

AirflowNetwork:MultiZone:Surface,
    P1_W11,                  !- Surface Name
    Windows,                 !- Leakage Component Name
    ,                        !- External Node Name
    0.45,                    !- Window/Door Opening Factor, or Crack Factor {dimensionless}
    ZoneLevel,               !- Ventilation Control Mode
    VN_19,                   !- Ventilation Control Zone Temperature Setpoint Schedule Name
    0.45,                    !- Minimum Venting Open Factor {dimensionless}
    0,                       !- Indoor and Outdoor Temperature Difference Lower Limit For Maximum Venting Open Factor {deltaC}
    5,                       !- Indoor and Outdoor Temperature Difference Upper Limit for Minimum Venting Open Factor {deltaC}
    0,                       !- Indoor and Outdoor Enthalpy Difference Lower Limit For Maximum Venting Open Factor {deltaJ/kg}
    300000,                  !- Indoor and Outdoor Enthalpy Difference Upper Limit for Minimum Venting Open Factor {deltaJ/kg}
    TLB Occupation Schedule, !- Venting Availability Schedule Name
    ,                        !- Occupant Ventilation Control Name
    PolygonHeight,           !- Equivalent Rectangle Method
    1;                       !- Equivalent Rectangle Aspect Ratio {dimensionless}

AirflowNetwork:MultiZone:Surface,
    P1_W12,                  !- Surface Name
    Windows,                 !- Leakage Component Name
    ,                        !- External Node Name
    0.45,                    !- Window/Door Opening Factor, or Crack Factor {dimensionless}
    ZoneLevel,               !- Ventilation Control Mode
    VN_19,                   !- Ventilation Control Zone Temperature Setpoint Schedule Name
    0.45,                    !- Minimum Venting Open Factor {dimensionless}
    0,                       !- Indoor and Outdoor Temperature Difference Lower Limit For Maximum Venting Open Factor {deltaC}
    5,                       !- Indoor and Outdoor Temperature Difference Upper Limit for Minimum Venting Open Factor {deltaC}
    0,                       !- Indoor and Outdoor Enthalpy Difference Lower Limit For Maximum Venting Open Factor {deltaJ/kg}
    300000,                  !- Indoor and Outdoor Enthalpy Difference Upper Limit for Minimum Venting Open Factor {deltaJ/kg}
    TLB Occupation Schedule, !- Venting Availability Schedule Name
    ,                        !- Occupant Ventilation Control Name
    PolygonHeight,           !- Equivalent Rectangle Method
    1;                       !- Equivalent Rectangle Aspect Ratio {dimensionless}

AirflowNetwork:MultiZone:Surface,
    P1_W13,                  !- Surface Name
    Windows,                 !- Leakage Component Name
    ,                        !- External Node Name
    0.45,                    !- Window/Door Opening Factor, or Crack Factor {dimensionless}
    ZoneLevel,               !- Ventilation Control Mode
    VN_19,                   !- Ventilation Control Zone Temperature Setpoint Schedule Name
    0.45,                    !- Minimum Venting Open Factor {dimensionless}
    0,                       !- Indoor and Outdoor Temperature Difference Lower Limit For Maximum Venting Open Factor {deltaC}
    5,                       !- Indoor and Outdoor Temperature Difference Upper Limit for Minimum Venting Open Factor {deltaC}
    0,                       !- Indoor and Outdoor Enthalpy Difference Lower Limit For Maximum Venting Open Factor {deltaJ/kg}
    300000,                  !- Indoor and Outdoor Enthalpy Difference Upper Limit for Minimum Venting Open Factor {deltaJ/kg}
    TLB Occupation Schedule, !- Venting Availability Schedule Name
    ,                        !- Occupant Ventilation Control Name
    PolygonHeight,           !- Equivalent Rectangle Method
    1;                       !- Equivalent Rectangle Aspect Ratio {dimensionless}

AirflowNetwork:MultiZone:Surface,
    P1_W14 (WC),             !- Surface Name
    Windows,                 !- Leakage Component Name
    ,                        !- External Node Name
    0.45,                    !- Window/Door Opening Factor, or Crack Factor {dimensionless}
    ZoneLevel,               !- Ventilation Control Mode
    VN_19,                   !- Ventilation Control Zone Temperature Setpoint Schedule Name
    0.45,                    !- Minimum Venting Open Factor {dimensionless}
    0,                       !- Indoor and Outdoor Temperature Difference Lower Limit For Maximum Venting Open Factor {deltaC}
    5,                       !- Indoor and Outdoor Temperature Difference Upper Limit for Minimum Venting Open Factor {deltaC}
    0,                       !- Indoor and Outdoor Enthalpy Difference Lower Limit For Maximum Venting Open Factor {deltaJ/kg}
    300000,                  !- Indoor and Outdoor Enthalpy Difference Upper Limit for Minimum Venting Open Factor {deltaJ/kg}
    TLB Occupation Schedule, !- Venting Availability Schedule Name
    ,                        !- Occupant Ventilation Control Name
    PolygonHeight,           !- Equivalent Rectangle Method
    1;                       !- Equivalent Rectangle Aspect Ratio {dimensionless}

AirflowNetwork:MultiZone:Surface,
    P1_W15 (Kitchen),        !- Surface Name
    Windows,                 !- Leakage Component Name
    ,                        !- External Node Name
    0.45,                    !- Window/Door Opening Factor, or Crack Factor {dimensionless}
    ZoneLevel,               !- Ventilation Control Mode
    VN_19,                   !- Ventilation Control Zone Temperature Setpoint Schedule Name
    0.45,                    !- Minimum Venting Open Factor {dimensionless}
    0,                       !- Indoor and Outdoor Temperature Difference Lower Limit For Maximum Venting Open Factor {deltaC}
    5,                       !- Indoor and Outdoor Temperature Difference Upper Limit for Minimum Venting Open Factor {deltaC}
    0,                       !- Indoor and Outdoor Enthalpy Difference Lower Limit For Maximum Venting Open Factor {deltaJ/kg}
    300000,                  !- Indoor and Outdoor Enthalpy Difference Upper Limit for Minimum Venting Open Factor {deltaJ/kg}
    TLB Occupation Schedule, !- Venting Availability Schedule Name
    ,                        !- Occupant Ventilation Control Name
    PolygonHeight,           !- Equivalent Rectangle Method
    1;                       !- Equivalent Rectangle Aspect Ratio {dimensionless}

AirflowNetwork:MultiZone:Surface,
    P1_W16,                  !- Surface Name
    Windows,                 !- Leakage Component Name
    ,                        !- External Node Name
    0.45,                    !- Window/Door Opening Factor, or Crack Factor {dimensionless}
    ZoneLevel,               !- Ventilation Control Mode
    VN_19,                   !- Ventilation Control Zone Temperature Setpoint Schedule Name
    0.45,                    !- Minimum Venting Open Factor {dimensionless}
    0,                       !- Indoor and Outdoor Temperature Difference Lower Limit For Maximum Venting Open Factor {deltaC}
    5,                       !- Indoor and Outdoor Temperature Difference Upper Limit for Minimum Venting Open Factor {deltaC}
    0,                       !- Indoor and Outdoor Enthalpy Difference Lower Limit For Maximum Venting Open Factor {deltaJ/kg}
    300000,                  !- Indoor and Outdoor Enthalpy Difference Upper Limit for Minimum Venting Open Factor {deltaJ/kg}
    TLB Occupation Schedule, !- Venting Availability Schedule Name
    ,                        !- Occupant Ventilation Control Name
    PolygonHeight,           !- Equivalent Rectangle Method
    1;                       !- Equivalent Rectangle Aspect Ratio {dimensionless}

AirflowNetwork:MultiZone:Surface,
    P1_W17,                  !- Surface Name
    Windows,                 !- Leakage Component Name
    ,                        !- External Node Name
    0.45,                    !- Window/Door Opening Factor, or Crack Factor {dimensionless}
    ZoneLevel,               !- Ventilation Control Mode
    VN_19,                   !- Ventilation Control Zone Temperature Setpoint Schedule Name
    0.45,                    !- Minimum Venting Open Factor {dimensionless}
    0,                       !- Indoor and Outdoor Temperature Difference Lower Limit For Maximum Venting Open Factor {deltaC}
    5,                       !- Indoor and Outdoor Temperature Difference Upper Limit for Minimum Venting Open Factor {deltaC}
    0,                       !- Indoor and Outdoor Enthalpy Difference Lower Limit For Maximum Venting Open Factor {deltaJ/kg}
    300000,                  !- Indoor and Outdoor Enthalpy Difference Upper Limit for Minimum Venting Open Factor {deltaJ/kg}
    TLB Occupation Schedule, !- Venting Availability Schedule Name
    ,                        !- Occupant Ventilation Control Name
    PolygonHeight,           !- Equivalent Rectangle Method
    1;                       !- Equivalent Rectangle Aspect Ratio {dimensionless}

AirflowNetwork:MultiZone:Surface,
    P1_W18 (Kitchen),        !- Surface Name
    Windows,                 !- Leakage Component Name
    ,                        !- External Node Name
    0.45,                    !- Window/Door Opening Factor, or Crack Factor {dimensionless}
    ZoneLevel,               !- Ventilation Control Mode
    VN_19,                   !- Ventilation Control Zone Temperature Setpoint Schedule Name
    0.45,                    !- Minimum Venting Open Factor {dimensionless}
    0,                       !- Indoor and Outdoor Temperature Difference Lower Limit For Maximum Venting Open Factor {deltaC}
    5,                       !- Indoor and Outdoor Temperature Difference Upper Limit for Minimum Venting Open Factor {deltaC}
    0,                       !- Indoor and Outdoor Enthalpy Difference Lower Limit For Maximum Venting Open Factor {deltaJ/kg}
    300000,                  !- Indoor and Outdoor Enthalpy Difference Upper Limit for Minimum Venting Open Factor {deltaJ/kg}
    TLB Occupation Schedule, !- Venting Availability Schedule Name
    ,                        !- Occupant Ventilation Control Name
    PolygonHeight,           !- Equivalent Rectangle Method
    1;                       !- Equivalent Rectangle Aspect Ratio {dimensionless}

AirflowNetwork:MultiZone:Surface,
    P1_W19 (WC),             !- Surface Name
    Windows,                 !- Leakage Component Name
    ,                        !- External Node Name
    0.45,                    !- Window/Door Opening Factor, or Crack Factor {dimensionless}
    ZoneLevel,               !- Ventilation Control Mode
    VN_19,                   !- Ventilation Control Zone Temperature Setpoint Schedule Name
    0.45,                    !- Minimum Venting Open Factor {dimensionless}
    0,                       !- Indoor and Outdoor Temperature Difference Lower Limit For Maximum Venting Open Factor {deltaC}
    5,                       !- Indoor and Outdoor Temperature Difference Upper Limit for Minimum Venting Open Factor {deltaC}
    0,                       !- Indoor and Outdoor Enthalpy Difference Lower Limit For Maximum Venting Open Factor {deltaJ/kg}
    300000,                  !- Indoor and Outdoor Enthalpy Difference Upper Limit for Minimum Venting Open Factor {deltaJ/kg}
    TLB Occupation Schedule, !- Venting Availability Schedule Name
    ,                        !- Occupant Ventilation Control Name
    PolygonHeight,           !- Equivalent Rectangle Method
    1;                       !- Equivalent Rectangle Aspect Ratio {dimensionless}

AirflowNetwork:MultiZone:Surface,
    P1_W20,                  !- Surface Name
    Windows,                 !- Leakage Component Name
    ,                        !- External Node Name
    0.45,                    !- Window/Door Opening Factor, or Crack Factor {dimensionless}
    ZoneLevel,               !- Ventilation Control Mode
    VN_19,                   !- Ventilation Control Zone Temperature Setpoint Schedule Name
    0.45,                    !- Minimum Venting Open Factor {dimensionless}
    0,                       !- Indoor and Outdoor Temperature Difference Lower Limit For Maximum Venting Open Factor {deltaC}
    5,                       !- Indoor and Outdoor Temperature Difference Upper Limit for Minimum Venting Open Factor {deltaC}
    0,                       !- Indoor and Outdoor Enthalpy Difference Lower Limit For Maximum Venting Open Factor {deltaJ/kg}
    300000,                  !- Indoor and Outdoor Enthalpy Difference Upper Limit for Minimum Venting Open Factor {deltaJ/kg}
    TLB Occupation Schedule, !- Venting Availability Schedule Name
    ,                        !- Occupant Ventilation Control Name
    PolygonHeight,           !- Equivalent Rectangle Method
    1;                       !- Equivalent Rectangle Aspect Ratio {dimensionless}

AirflowNetwork:MultiZone:Surface,
    P2_W01,                  !- Surface Name
    Windows,                 !- Leakage Component Name
    ,                        !- External Node Name
    0.45,                    !- Window/Door Opening Factor, or Crack Factor {dimensionless}
    ZoneLevel,               !- Ventilation Control Mode
    VN_19,                   !- Ventilation Control Zone Temperature Setpoint Schedule Name
    0.45,                    !- Minimum Venting Open Factor {dimensionless}
    0,                       !- Indoor and Outdoor Temperature Difference Lower Limit For Maximum Venting Open Factor {deltaC}
    5,                       !- Indoor and Outdoor Temperature Difference Upper Limit for Minimum Venting Open Factor {deltaC}
    0,                       !- Indoor and Outdoor Enthalpy Difference Lower Limit For Maximum Venting Open Factor {deltaJ/kg}
    300000,                  !- Indoor and Outdoor Enthalpy Difference Upper Limit for Minimum Venting Open Factor {deltaJ/kg}
    TLB Occupation Schedule, !- Venting Availability Schedule Name
    ,                        !- Occupant Ventilation Control Name
    PolygonHeight,           !- Equivalent Rectangle Method
    1;                       !- Equivalent Rectangle Aspect Ratio {dimensionless}

AirflowNetwork:MultiZone:Surface,
    P2_W02,                  !- Surface Name
    Windows,                 !- Leakage Component Name
    ,                        !- External Node Name
    0.45,                    !- Window/Door Opening Factor, or Crack Factor {dimensionless}
    ZoneLevel,               !- Ventilation Control Mode
    VN_19,                   !- Ventilation Control Zone Temperature Setpoint Schedule Name
    0.45,                    !- Minimum Venting Open Factor {dimensionless}
    0,                       !- Indoor and Outdoor Temperature Difference Lower Limit For Maximum Venting Open Factor {deltaC}
    5,                       !- Indoor and Outdoor Temperature Difference Upper Limit for Minimum Venting Open Factor {deltaC}
    0,                       !- Indoor and Outdoor Enthalpy Difference Lower Limit For Maximum Venting Open Factor {deltaJ/kg}
    300000,                  !- Indoor and Outdoor Enthalpy Difference Upper Limit for Minimum Venting Open Factor {deltaJ/kg}
    TLB Occupation Schedule, !- Venting Availability Schedule Name
    ,                        !- Occupant Ventilation Control Name
    PolygonHeight,           !- Equivalent Rectangle Method
    1;                       !- Equivalent Rectangle Aspect Ratio {dimensionless}

AirflowNetwork:MultiZone:Surface,
    P2_W03,                  !- Surface Name
    Windows,                 !- Leakage Component Name
    ,                        !- External Node Name
    0.45,                    !- Window/Door Opening Factor, or Crack Factor {dimensionless}
    ZoneLevel,               !- Ventilation Control Mode
    VN_19,                   !- Ventilation Control Zone Temperature Setpoint Schedule Name
    0.45,                    !- Minimum Venting Open Factor {dimensionless}
    0,                       !- Indoor and Outdoor Temperature Difference Lower Limit For Maximum Venting Open Factor {deltaC}
    5,                       !- Indoor and Outdoor Temperature Difference Upper Limit for Minimum Venting Open Factor {deltaC}
    0,                       !- Indoor and Outdoor Enthalpy Difference Lower Limit For Maximum Venting Open Factor {deltaJ/kg}
    300000,                  !- Indoor and Outdoor Enthalpy Difference Upper Limit for Minimum Venting Open Factor {deltaJ/kg}
    TLB Occupation Schedule, !- Venting Availability Schedule Name
    ,                        !- Occupant Ventilation Control Name
    PolygonHeight,           !- Equivalent Rectangle Method
    1;                       !- Equivalent Rectangle Aspect Ratio {dimensionless}

AirflowNetwork:MultiZone:Surface,
    P2_W04 (WC),             !- Surface Name
    Windows,                 !- Leakage Component Name
    ,                        !- External Node Name
    0.45,                    !- Window/Door Opening Factor, or Crack Factor {dimensionless}
    ZoneLevel,               !- Ventilation Control Mode
    VN_19,                   !- Ventilation Control Zone Temperature Setpoint Schedule Name
    0.45,                    !- Minimum Venting Open Factor {dimensionless}
    0,                       !- Indoor and Outdoor Temperature Difference Lower Limit For Maximum Venting Open Factor {deltaC}
    5,                       !- Indoor and Outdoor Temperature Difference Upper Limit for Minimum Venting Open Factor {deltaC}
    0,                       !- Indoor and Outdoor Enthalpy Difference Lower Limit For Maximum Venting Open Factor {deltaJ/kg}
    300000,                  !- Indoor and Outdoor Enthalpy Difference Upper Limit for Minimum Venting Open Factor {deltaJ/kg}
    TLB Occupation Schedule, !- Venting Availability Schedule Name
    ,                        !- Occupant Ventilation Control Name
    PolygonHeight,           !- Equivalent Rectangle Method
    1;                       !- Equivalent Rectangle Aspect Ratio {dimensionless}

AirflowNetwork:MultiZone:Surface,
    P2_W05 (Kitchen),        !- Surface Name
    Windows,                 !- Leakage Component Name
    ,                        !- External Node Name
    0.45,                    !- Window/Door Opening Factor, or Crack Factor {dimensionless}
    ZoneLevel,               !- Ventilation Control Mode
    VN_19,                   !- Ventilation Control Zone Temperature Setpoint Schedule Name
    0.45,                    !- Minimum Venting Open Factor {dimensionless}
    0,                       !- Indoor and Outdoor Temperature Difference Lower Limit For Maximum Venting Open Factor {deltaC}
    5,                       !- Indoor and Outdoor Temperature Difference Upper Limit for Minimum Venting Open Factor {deltaC}
    0,                       !- Indoor and Outdoor Enthalpy Difference Lower Limit For Maximum Venting Open Factor {deltaJ/kg}
    300000,                  !- Indoor and Outdoor Enthalpy Difference Upper Limit for Minimum Venting Open Factor {deltaJ/kg}
    TLB Occupation Schedule, !- Venting Availability Schedule Name
    ,                        !- Occupant Ventilation Control Name
    PolygonHeight,           !- Equivalent Rectangle Method
    1;                       !- Equivalent Rectangle Aspect Ratio {dimensionless}

AirflowNetwork:MultiZone:Surface,
    P2_W06,                  !- Surface Name
    Windows,                 !- Leakage Component Name
    ,                        !- External Node Name
    0.45,                    !- Window/Door Opening Factor, or Crack Factor {dimensionless}
    ZoneLevel,               !- Ventilation Control Mode
    VN_19,                   !- Ventilation Control Zone Temperature Setpoint Schedule Name
    0.45,                    !- Minimum Venting Open Factor {dimensionless}
    0,                       !- Indoor and Outdoor Temperature Difference Lower Limit For Maximum Venting Open Factor {deltaC}
    5,                       !- Indoor and Outdoor Temperature Difference Upper Limit for Minimum Venting Open Factor {deltaC}
    0,                       !- Indoor and Outdoor Enthalpy Difference Lower Limit For Maximum Venting Open Factor {deltaJ/kg}
    300000,                  !- Indoor and Outdoor Enthalpy Difference Upper Limit for Minimum Venting Open Factor {deltaJ/kg}
    TLB Occupation Schedule, !- Venting Availability Schedule Name
    ,                        !- Occupant Ventilation Control Name
    PolygonHeight,           !- Equivalent Rectangle Method
    1;                       !- Equivalent Rectangle Aspect Ratio {dimensionless}

AirflowNetwork:MultiZone:Surface,
    P2_W07,                  !- Surface Name
    Windows,                 !- Leakage Component Name
    ,                        !- External Node Name
    0.45,                    !- Window/Door Opening Factor, or Crack Factor {dimensionless}
    ZoneLevel,               !- Ventilation Control Mode
    VN_19,                   !- Ventilation Control Zone Temperature Setpoint Schedule Name
    0.45,                    !- Minimum Venting Open Factor {dimensionless}
    0,                       !- Indoor and Outdoor Temperature Difference Lower Limit For Maximum Venting Open Factor {deltaC}
    5,                       !- Indoor and Outdoor Temperature Difference Upper Limit for Minimum Venting Open Factor {deltaC}
    0,                       !- Indoor and Outdoor Enthalpy Difference Lower Limit For Maximum Venting Open Factor {deltaJ/kg}
    300000,                  !- Indoor and Outdoor Enthalpy Difference Upper Limit for Minimum Venting Open Factor {deltaJ/kg}
    TLB Occupation Schedule, !- Venting Availability Schedule Name
    ,                        !- Occupant Ventilation Control Name
    PolygonHeight,           !- Equivalent Rectangle Method
    1;                       !- Equivalent Rectangle Aspect Ratio {dimensionless}

AirflowNetwork:MultiZone:Surface,
    P2_W08 (Kitchen),        !- Surface Name
    Windows,                 !- Leakage Component Name
    ,                        !- External Node Name
    0.45,                    !- Window/Door Opening Factor, or Crack Factor {dimensionless}
    ZoneLevel,               !- Ventilation Control Mode
    VN_19,                   !- Ventilation Control Zone Temperature Setpoint Schedule Name
    0.45,                    !- Minimum Venting Open Factor {dimensionless}
    0,                       !- Indoor and Outdoor Temperature Difference Lower Limit For Maximum Venting Open Factor {deltaC}
    5,                       !- Indoor and Outdoor Temperature Difference Upper Limit for Minimum Venting Open Factor {deltaC}
    0,                       !- Indoor and Outdoor Enthalpy Difference Lower Limit For Maximum Venting Open Factor {deltaJ/kg}
    300000,                  !- Indoor and Outdoor Enthalpy Difference Upper Limit for Minimum Venting Open Factor {deltaJ/kg}
    TLB Occupation Schedule, !- Venting Availability Schedule Name
    ,                        !- Occupant Ventilation Control Name
    PolygonHeight,           !- Equivalent Rectangle Method
    1;                       !- Equivalent Rectangle Aspect Ratio {dimensionless}

AirflowNetwork:MultiZone:Surface,
    P2_W09 (WC),             !- Surface Name
    Windows,                 !- Leakage Component Name
    ,                        !- External Node Name
    0.45,                    !- Window/Door Opening Factor, or Crack Factor {dimensionless}
    ZoneLevel,               !- Ventilation Control Mode
    VN_19,                   !- Ventilation Control Zone Temperature Setpoint Schedule Name
    0.45,                    !- Minimum Venting Open Factor {dimensionless}
    0,                       !- Indoor and Outdoor Temperature Difference Lower Limit For Maximum Venting Open Factor {deltaC}
    5,                       !- Indoor and Outdoor Temperature Difference Upper Limit for Minimum Venting Open Factor {deltaC}
    0,                       !- Indoor and Outdoor Enthalpy Difference Lower Limit For Maximum Venting Open Factor {deltaJ/kg}
    300000,                  !- Indoor and Outdoor Enthalpy Difference Upper Limit for Minimum Venting Open Factor {deltaJ/kg}
    TLB Occupation Schedule, !- Venting Availability Schedule Name
    ,                        !- Occupant Ventilation Control Name
    PolygonHeight,           !- Equivalent Rectangle Method
    1;                       !- Equivalent Rectangle Aspect Ratio {dimensionless}

AirflowNetwork:MultiZone:Surface,
    P2_W10,                  !- Surface Name
    Windows,                 !- Leakage Component Name
    ,                        !- External Node Name
    0.45,                    !- Window/Door Opening Factor, or Crack Factor {dimensionless}
    ZoneLevel,               !- Ventilation Control Mode
    VN_19,                   !- Ventilation Control Zone Temperature Setpoint Schedule Name
    0.45,                    !- Minimum Venting Open Factor {dimensionless}
    0,                       !- Indoor and Outdoor Temperature Difference Lower Limit For Maximum Venting Open Factor {deltaC}
    5,                       !- Indoor and Outdoor Temperature Difference Upper Limit for Minimum Venting Open Factor {deltaC}
    0,                       !- Indoor and Outdoor Enthalpy Difference Lower Limit For Maximum Venting Open Factor {deltaJ/kg}
    300000,                  !- Indoor and Outdoor Enthalpy Difference Upper Limit for Minimum Venting Open Factor {deltaJ/kg}
    TLB Occupation Schedule, !- Venting Availability Schedule Name
    ,                        !- Occupant Ventilation Control Name
    PolygonHeight,           !- Equivalent Rectangle Method
    1;                       !- Equivalent Rectangle Aspect Ratio {dimensionless}

AirflowNetwork:MultiZone:Surface,
    P2_W11,                  !- Surface Name
    Windows,                 !- Leakage Component Name
    ,                        !- External Node Name
    0.45,                    !- Window/Door Opening Factor, or Crack Factor {dimensionless}
    ZoneLevel,               !- Ventilation Control Mode
    VN_19,                   !- Ventilation Control Zone Temperature Setpoint Schedule Name
    0.45,                    !- Minimum Venting Open Factor {dimensionless}
    0,                       !- Indoor and Outdoor Temperature Difference Lower Limit For Maximum Venting Open Factor {deltaC}
    5,                       !- Indoor and Outdoor Temperature Difference Upper Limit for Minimum Venting Open Factor {deltaC}
    0,                       !- Indoor and Outdoor Enthalpy Difference Lower Limit For Maximum Venting Open Factor {deltaJ/kg}
    300000,                  !- Indoor and Outdoor Enthalpy Difference Upper Limit for Minimum Venting Open Factor {deltaJ/kg}
    TLB Occupation Schedule, !- Venting Availability Schedule Name
    ,                        !- Occupant Ventilation Control Name
    PolygonHeight,           !- Equivalent Rectangle Method
    1;                       !- Equivalent Rectangle Aspect Ratio {dimensionless}

AirflowNetwork:MultiZone:Surface,
    P2_W12,                  !- Surface Name
    Windows,                 !- Leakage Component Name
    ,                        !- External Node Name
    0.45,                    !- Window/Door Opening Factor, or Crack Factor {dimensionless}
    ZoneLevel,               !- Ventilation Control Mode
    VN_19,                   !- Ventilation Control Zone Temperature Setpoint Schedule Name
    0.45,                    !- Minimum Venting Open Factor {dimensionless}
    0,                       !- Indoor and Outdoor Temperature Difference Lower Limit For Maximum Venting Open Factor {deltaC}
    5,                       !- Indoor and Outdoor Temperature Difference Upper Limit for Minimum Venting Open Factor {deltaC}
    0,                       !- Indoor and Outdoor Enthalpy Difference Lower Limit For Maximum Venting Open Factor {deltaJ/kg}
    300000,                  !- Indoor and Outdoor Enthalpy Difference Upper Limit for Minimum Venting Open Factor {deltaJ/kg}
    TLB Occupation Schedule, !- Venting Availability Schedule Name
    ,                        !- Occupant Ventilation Control Name
    PolygonHeight,           !- Equivalent Rectangle Method
    1;                       !- Equivalent Rectangle Aspect Ratio {dimensionless}

AirflowNetwork:MultiZone:Surface,
    P2_W13,                  !- Surface Name
    Windows,                 !- Leakage Component Name
    ,                        !- External Node Name
    0.45,                    !- Window/Door Opening Factor, or Crack Factor {dimensionless}
    ZoneLevel,               !- Ventilation Control Mode
    VN_19,                   !- Ventilation Control Zone Temperature Setpoint Schedule Name
    0.45,                    !- Minimum Venting Open Factor {dimensionless}
    0,                       !- Indoor and Outdoor Temperature Difference Lower Limit For Maximum Venting Open Factor {deltaC}
    5,                       !- Indoor and Outdoor Temperature Difference Upper Limit for Minimum Venting Open Factor {deltaC}
    0,                       !- Indoor and Outdoor Enthalpy Difference Lower Limit For Maximum Venting Open Factor {deltaJ/kg}
    300000,                  !- Indoor and Outdoor Enthalpy Difference Upper Limit for Minimum Venting Open Factor {deltaJ/kg}
    TLB Occupation Schedule, !- Venting Availability Schedule Name
    ,                        !- Occupant Ventilation Control Name
    PolygonHeight,           !- Equivalent Rectangle Method
    1;                       !- Equivalent Rectangle Aspect Ratio {dimensionless}

AirflowNetwork:MultiZone:Surface,
    P2_W14 (WC),             !- Surface Name
    Windows,                 !- Leakage Component Name
    ,                        !- External Node Name
    0.45,                    !- Window/Door Opening Factor, or Crack Factor {dimensionless}
    ZoneLevel,               !- Ventilation Control Mode
    VN_19,                   !- Ventilation Control Zone Temperature Setpoint Schedule Name
    0.45,                    !- Minimum Venting Open Factor {dimensionless}
    0,                       !- Indoor and Outdoor Temperature Difference Lower Limit For Maximum Venting Open Factor {deltaC}
    5,                       !- Indoor and Outdoor Temperature Difference Upper Limit for Minimum Venting Open Factor {deltaC}
    0,                       !- Indoor and Outdoor Enthalpy Difference Lower Limit For Maximum Venting Open Factor {deltaJ/kg}
    300000,                  !- Indoor and Outdoor Enthalpy Difference Upper Limit for Minimum Venting Open Factor {deltaJ/kg}
    TLB Occupation Schedule, !- Venting Availability Schedule Name
    ,                        !- Occupant Ventilation Control Name
    PolygonHeight,           !- Equivalent Rectangle Method
    1;                       !- Equivalent Rectangle Aspect Ratio {dimensionless}

AirflowNetwork:MultiZone:Surface,
    P2_W15 (Kitchen),        !- Surface Name
    Windows,                 !- Leakage Component Name
    ,                        !- External Node Name
    0.45,                    !- Window/Door Opening Factor, or Crack Factor {dimensionless}
    ZoneLevel,               !- Ventilation Control Mode
    VN_19,                   !- Ventilation Control Zone Temperature Setpoint Schedule Name
    0.45,                    !- Minimum Venting Open Factor {dimensionless}
    0,                       !- Indoor and Outdoor Temperature Difference Lower Limit For Maximum Venting Open Factor {deltaC}
    5,                       !- Indoor and Outdoor Temperature Difference Upper Limit for Minimum Venting Open Factor {deltaC}
    0,                       !- Indoor and Outdoor Enthalpy Difference Lower Limit For Maximum Venting Open Factor {deltaJ/kg}
    300000,                  !- Indoor and Outdoor Enthalpy Difference Upper Limit for Minimum Venting Open Factor {deltaJ/kg}
    TLB Occupation Schedule, !- Venting Availability Schedule Name
    ,                        !- Occupant Ventilation Control Name
    PolygonHeight,           !- Equivalent Rectangle Method
    1;                       !- Equivalent Rectangle Aspect Ratio {dimensionless}

AirflowNetwork:MultiZone:Surface,
    P2_W16,                  !- Surface Name
    Windows,                 !- Leakage Component Name
    ,                        !- External Node Name
    0.45,                    !- Window/Door Opening Factor, or Crack Factor {dimensionless}
    ZoneLevel,               !- Ventilation Control Mode
    VN_19,                   !- Ventilation Control Zone Temperature Setpoint Schedule Name
    0.45,                    !- Minimum Venting Open Factor {dimensionless}
    0,                       !- Indoor and Outdoor Temperature Difference Lower Limit For Maximum Venting Open Factor {deltaC}
    5,                       !- Indoor and Outdoor Temperature Difference Upper Limit for Minimum Venting Open Factor {deltaC}
    0,                       !- Indoor and Outdoor Enthalpy Difference Lower Limit For Maximum Venting Open Factor {deltaJ/kg}
    300000,                  !- Indoor and Outdoor Enthalpy Difference Upper Limit for Minimum Venting Open Factor {deltaJ/kg}
    TLB Occupation Schedule, !- Venting Availability Schedule Name
    ,                        !- Occupant Ventilation Control Name
    PolygonHeight,           !- Equivalent Rectangle Method
    1;                       !- Equivalent Rectangle Aspect Ratio {dimensionless}

AirflowNetwork:MultiZone:Surface,
    P2_W17,                  !- Surface Name
    Windows,                 !- Leakage Component Name
    ,                        !- External Node Name
    0.45,                    !- Window/Door Opening Factor, or Crack Factor {dimensionless}
    ZoneLevel,               !- Ventilation Control Mode
    VN_19,                   !- Ventilation Control Zone Temperature Setpoint Schedule Name
    0.45,                    !- Minimum Venting Open Factor {dimensionless}
    0,                       !- Indoor and Outdoor Temperature Difference Lower Limit For Maximum Venting Open Factor {deltaC}
    5,                       !- Indoor and Outdoor Temperature Difference Upper Limit for Minimum Venting Open Factor {deltaC}
    0,                       !- Indoor and Outdoor Enthalpy Difference Lower Limit For Maximum Venting Open Factor {deltaJ/kg}
    300000,                  !- Indoor and Outdoor Enthalpy Difference Upper Limit for Minimum Venting Open Factor {deltaJ/kg}
    TLB Occupation Schedule, !- Venting Availability Schedule Name
    ,                        !- Occupant Ventilation Control Name
    PolygonHeight,           !- Equivalent Rectangle Method
    1;                       !- Equivalent Rectangle Aspect Ratio {dimensionless}

AirflowNetwork:MultiZone:Surface,
    P2_W18 (Kitchen),        !- Surface Name
    Windows,                 !- Leakage Component Name
    ,                        !- External Node Name
    0.45,                    !- Window/Door Opening Factor, or Crack Factor {dimensionless}
    ZoneLevel,               !- Ventilation Control Mode
    VN_19,                   !- Ventilation Control Zone Temperature Setpoint Schedule Name
    0.45,                    !- Minimum Venting Open Factor {dimensionless}
    0,                       !- Indoor and Outdoor Temperature Difference Lower Limit For Maximum Venting Open Factor {deltaC}
    5,                       !- Indoor and Outdoor Temperature Difference Upper Limit for Minimum Venting Open Factor {deltaC}
    0,                       !- Indoor and Outdoor Enthalpy Difference Lower Limit For Maximum Venting Open Factor {deltaJ/kg}
    300000,                  !- Indoor and Outdoor Enthalpy Difference Upper Limit for Minimum Venting Open Factor {deltaJ/kg}
    TLB Occupation Schedule, !- Venting Availability Schedule Name
    ,                        !- Occupant Ventilation Control Name
    PolygonHeight,           !- Equivalent Rectangle Method
    1;                       !- Equivalent Rectangle Aspect Ratio {dimensionless}

AirflowNetwork:MultiZone:Surface,
    P2_W19 (WC),             !- Surface Name
    Windows,                 !- Leakage Component Name
    ,                        !- External Node Name
    0.45,                    !- Window/Door Opening Factor, or Crack Factor {dimensionless}
    ZoneLevel,               !- Ventilation Control Mode
    VN_19,                   !- Ventilation Control Zone Temperature Setpoint Schedule Name
    0.45,                    !- Minimum Venting Open Factor {dimensionless}
    0,                       !- Indoor and Outdoor Temperature Difference Lower Limit For Maximum Venting Open Factor {deltaC}
    5,                       !- Indoor and Outdoor Temperature Difference Upper Limit for Minimum Venting Open Factor {deltaC}
    0,                       !- Indoor and Outdoor Enthalpy Difference Lower Limit For Maximum Venting Open Factor {deltaJ/kg}
    300000,                  !- Indoor and Outdoor Enthalpy Difference Upper Limit for Minimum Venting Open Factor {deltaJ/kg}
    TLB Occupation Schedule, !- Venting Availability Schedule Name
    ,                        !- Occupant Ventilation Control Name
    PolygonHeight,           !- Equivalent Rectangle Method
    1;                       !- Equivalent Rectangle Aspect Ratio {dimensionless}

AirflowNetwork:MultiZone:Surface,
    P2_W20,                  !- Surface Name
    Windows,                 !- Leakage Component Name
    ,                        !- External Node Name
    0.45,                    !- Window/Door Opening Factor, or Crack Factor {dimensionless}
    ZoneLevel,               !- Ventilation Control Mode
    VN_19,                   !- Ventilation Control Zone Temperature Setpoint Schedule Name
    0.45,                    !- Minimum Venting Open Factor {dimensionless}
    0,                       !- Indoor and Outdoor Temperature Difference Lower Limit For Maximum Venting Open Factor {deltaC}
    5,                       !- Indoor and Outdoor Temperature Difference Upper Limit for Minimum Venting Open Factor {deltaC}
    0,                       !- Indoor and Outdoor Enthalpy Difference Lower Limit For Maximum Venting Open Factor {deltaJ/kg}
    300000,                  !- Indoor and Outdoor Enthalpy Difference Upper Limit for Minimum Venting Open Factor {deltaJ/kg}
    TLB Occupation Schedule, !- Venting Availability Schedule Name
    ,                        !- Occupant Ventilation Control Name
    PolygonHeight,           !- Equivalent Rectangle Method
    1;                       !- Equivalent Rectangle Aspect Ratio {dimensionless}

AirflowNetwork:MultiZone:Surface,
    P3_W01,                  !- Surface Name
    Windows,                 !- Leakage Component Name
    ,                        !- External Node Name
    0.45,                    !- Window/Door Opening Factor, or Crack Factor {dimensionless}
    ZoneLevel,               !- Ventilation Control Mode
    VN_19,                   !- Ventilation Control Zone Temperature Setpoint Schedule Name
    0.45,                    !- Minimum Venting Open Factor {dimensionless}
    0,                       !- Indoor and Outdoor Temperature Difference Lower Limit For Maximum Venting Open Factor {deltaC}
    5,                       !- Indoor and Outdoor Temperature Difference Upper Limit for Minimum Venting Open Factor {deltaC}
    0,                       !- Indoor and Outdoor Enthalpy Difference Lower Limit For Maximum Venting Open Factor {deltaJ/kg}
    300000,                  !- Indoor and Outdoor Enthalpy Difference Upper Limit for Minimum Venting Open Factor {deltaJ/kg}
    TLB Occupation Schedule, !- Venting Availability Schedule Name
    ,                        !- Occupant Ventilation Control Name
    PolygonHeight,           !- Equivalent Rectangle Method
    1;                       !- Equivalent Rectangle Aspect Ratio {dimensionless}

AirflowNetwork:MultiZone:Surface,
    P2_W02,                  !- Surface Name
    Windows,                 !- Leakage Component Name
    ,                        !- External Node Name
    0.45,                    !- Window/Door Opening Factor, or Crack Factor {dimensionless}
    ZoneLevel,               !- Ventilation Control Mode
    VN_19,                   !- Ventilation Control Zone Temperature Setpoint Schedule Name
    0.45,                    !- Minimum Venting Open Factor {dimensionless}
    0,                       !- Indoor and Outdoor Temperature Difference Lower Limit For Maximum Venting Open Factor {deltaC}
    5,                       !- Indoor and Outdoor Temperature Difference Upper Limit for Minimum Venting Open Factor {deltaC}
    0,                       !- Indoor and Outdoor Enthalpy Difference Lower Limit For Maximum Venting Open Factor {deltaJ/kg}
    300000,                  !- Indoor and Outdoor Enthalpy Difference Upper Limit for Minimum Venting Open Factor {deltaJ/kg}
    TLB Occupation Schedule, !- Venting Availability Schedule Name
    ,                        !- Occupant Ventilation Control Name
    PolygonHeight,           !- Equivalent Rectangle Method
    1;                       !- Equivalent Rectangle Aspect Ratio {dimensionless}

AirflowNetwork:MultiZone:Surface,
    P3_W03,                  !- Surface Name
    Windows,                 !- Leakage Component Name
    ,                        !- External Node Name
    0.45,                    !- Window/Door Opening Factor, or Crack Factor {dimensionless}
    ZoneLevel,               !- Ventilation Control Mode
    VN_19,                   !- Ventilation Control Zone Temperature Setpoint Schedule Name
    0.45,                    !- Minimum Venting Open Factor {dimensionless}
    0,                       !- Indoor and Outdoor Temperature Difference Lower Limit For Maximum Venting Open Factor {deltaC}
    5,                       !- Indoor and Outdoor Temperature Difference Upper Limit for Minimum Venting Open Factor {deltaC}
    0,                       !- Indoor and Outdoor Enthalpy Difference Lower Limit For Maximum Venting Open Factor {deltaJ/kg}
    300000,                  !- Indoor and Outdoor Enthalpy Difference Upper Limit for Minimum Venting Open Factor {deltaJ/kg}
    TLB Occupation Schedule, !- Venting Availability Schedule Name
    ,                        !- Occupant Ventilation Control Name
    PolygonHeight,           !- Equivalent Rectangle Method
    1;                       !- Equivalent Rectangle Aspect Ratio {dimensionless}

AirflowNetwork:MultiZone:Surface,
    P3_W04 (WC),             !- Surface Name
    Windows,                 !- Leakage Component Name
    ,                        !- External Node Name
    0.45,                    !- Window/Door Opening Factor, or Crack Factor {dimensionless}
    ZoneLevel,               !- Ventilation Control Mode
    VN_19,                   !- Ventilation Control Zone Temperature Setpoint Schedule Name
    0.45,                    !- Minimum Venting Open Factor {dimensionless}
    0,                       !- Indoor and Outdoor Temperature Difference Lower Limit For Maximum Venting Open Factor {deltaC}
    5,                       !- Indoor and Outdoor Temperature Difference Upper Limit for Minimum Venting Open Factor {deltaC}
    0,                       !- Indoor and Outdoor Enthalpy Difference Lower Limit For Maximum Venting Open Factor {deltaJ/kg}
    300000,                  !- Indoor and Outdoor Enthalpy Difference Upper Limit for Minimum Venting Open Factor {deltaJ/kg}
    TLB Occupation Schedule, !- Venting Availability Schedule Name
    ,                        !- Occupant Ventilation Control Name
    PolygonHeight,           !- Equivalent Rectangle Method
    1;                       !- Equivalent Rectangle Aspect Ratio {dimensionless}

AirflowNetwork:MultiZone:Surface,
    P3_W05 (Kitchen),        !- Surface Name
    Windows,                 !- Leakage Component Name
    ,                        !- External Node Name
    0.45,                    !- Window/Door Opening Factor, or Crack Factor {dimensionless}
    ZoneLevel,               !- Ventilation Control Mode
    VN_19,                   !- Ventilation Control Zone Temperature Setpoint Schedule Name
    0.45,                    !- Minimum Venting Open Factor {dimensionless}
    0,                       !- Indoor and Outdoor Temperature Difference Lower Limit For Maximum Venting Open Factor {deltaC}
    5,                       !- Indoor and Outdoor Temperature Difference Upper Limit for Minimum Venting Open Factor {deltaC}
    0,                       !- Indoor and Outdoor Enthalpy Difference Lower Limit For Maximum Venting Open Factor {deltaJ/kg}
    300000,                  !- Indoor and Outdoor Enthalpy Difference Upper Limit for Minimum Venting Open Factor {deltaJ/kg}
    TLB Occupation Schedule, !- Venting Availability Schedule Name
    ,                        !- Occupant Ventilation Control Name
    PolygonHeight,           !- Equivalent Rectangle Method
    1;                       !- Equivalent Rectangle Aspect Ratio {dimensionless}

AirflowNetwork:MultiZone:Surface,
    P3_W06,                  !- Surface Name
    Windows,                 !- Leakage Component Name
    ,                        !- External Node Name
    0.45,                    !- Window/Door Opening Factor, or Crack Factor {dimensionless}
    ZoneLevel,               !- Ventilation Control Mode
    VN_19,                   !- Ventilation Control Zone Temperature Setpoint Schedule Name
    0.45,                    !- Minimum Venting Open Factor {dimensionless}
    0,                       !- Indoor and Outdoor Temperature Difference Lower Limit For Maximum Venting Open Factor {deltaC}
    5,                       !- Indoor and Outdoor Temperature Difference Upper Limit for Minimum Venting Open Factor {deltaC}
    0,                       !- Indoor and Outdoor Enthalpy Difference Lower Limit For Maximum Venting Open Factor {deltaJ/kg}
    300000,                  !- Indoor and Outdoor Enthalpy Difference Upper Limit for Minimum Venting Open Factor {deltaJ/kg}
    TLB Occupation Schedule, !- Venting Availability Schedule Name
    ,                        !- Occupant Ventilation Control Name
    PolygonHeight,           !- Equivalent Rectangle Method
    1;                       !- Equivalent Rectangle Aspect Ratio {dimensionless}

AirflowNetwork:MultiZone:Surface,
    P3_W07,                  !- Surface Name
    Windows,                 !- Leakage Component Name
    ,                        !- External Node Name
    0.45,                    !- Window/Door Opening Factor, or Crack Factor {dimensionless}
    ZoneLevel,               !- Ventilation Control Mode
    VN_19,                   !- Ventilation Control Zone Temperature Setpoint Schedule Name
    0.45,                    !- Minimum Venting Open Factor {dimensionless}
    0,                       !- Indoor and Outdoor Temperature Difference Lower Limit For Maximum Venting Open Factor {deltaC}
    5,                       !- Indoor and Outdoor Temperature Difference Upper Limit for Minimum Venting Open Factor {deltaC}
    0,                       !- Indoor and Outdoor Enthalpy Difference Lower Limit For Maximum Venting Open Factor {deltaJ/kg}
    300000,                  !- Indoor and Outdoor Enthalpy Difference Upper Limit for Minimum Venting Open Factor {deltaJ/kg}
    TLB Occupation Schedule, !- Venting Availability Schedule Name
    ,                        !- Occupant Ventilation Control Name
    PolygonHeight,           !- Equivalent Rectangle Method
    1;                       !- Equivalent Rectangle Aspect Ratio {dimensionless}

AirflowNetwork:MultiZone:Surface,
    P3_W08 (Kitchen),        !- Surface Name
    Windows,                 !- Leakage Component Name
    ,                        !- External Node Name
    0.45,                    !- Window/Door Opening Factor, or Crack Factor {dimensionless}
    ZoneLevel,               !- Ventilation Control Mode
    VN_19,                   !- Ventilation Control Zone Temperature Setpoint Schedule Name
    0.45,                    !- Minimum Venting Open Factor {dimensionless}
    0,                       !- Indoor and Outdoor Temperature Difference Lower Limit For Maximum Venting Open Factor {deltaC}
    5,                       !- Indoor and Outdoor Temperature Difference Upper Limit for Minimum Venting Open Factor {deltaC}
    0,                       !- Indoor and Outdoor Enthalpy Difference Lower Limit For Maximum Venting Open Factor {deltaJ/kg}
    300000,                  !- Indoor and Outdoor Enthalpy Difference Upper Limit for Minimum Venting Open Factor {deltaJ/kg}
    TLB Occupation Schedule, !- Venting Availability Schedule Name
    ,                        !- Occupant Ventilation Control Name
    PolygonHeight,           !- Equivalent Rectangle Method
    1;                       !- Equivalent Rectangle Aspect Ratio {dimensionless}

AirflowNetwork:MultiZone:Surface,
    P3_W09 (WC),             !- Surface Name
    Windows,                 !- Leakage Component Name
    ,                        !- External Node Name
    0.45,                    !- Window/Door Opening Factor, or Crack Factor {dimensionless}
    ZoneLevel,               !- Ventilation Control Mode
    VN_19,                   !- Ventilation Control Zone Temperature Setpoint Schedule Name
    0.45,                    !- Minimum Venting Open Factor {dimensionless}
    0,                       !- Indoor and Outdoor Temperature Difference Lower Limit For Maximum Venting Open Factor {deltaC}
    5,                       !- Indoor and Outdoor Temperature Difference Upper Limit for Minimum Venting Open Factor {deltaC}
    0,                       !- Indoor and Outdoor Enthalpy Difference Lower Limit For Maximum Venting Open Factor {deltaJ/kg}
    300000,                  !- Indoor and Outdoor Enthalpy Difference Upper Limit for Minimum Venting Open Factor {deltaJ/kg}
    TLB Occupation Schedule, !- Venting Availability Schedule Name
    ,                        !- Occupant Ventilation Control Name
    PolygonHeight,           !- Equivalent Rectangle Method
    1;                       !- Equivalent Rectangle Aspect Ratio {dimensionless}

AirflowNetwork:MultiZone:Surface,
    P3_W10,                  !- Surface Name
    Windows,                 !- Leakage Component Name
    ,                        !- External Node Name
    0.45,                    !- Window/Door Opening Factor, or Crack Factor {dimensionless}
    ZoneLevel,               !- Ventilation Control Mode
    VN_19,                   !- Ventilation Control Zone Temperature Setpoint Schedule Name
    0.45,                    !- Minimum Venting Open Factor {dimensionless}
    0,                       !- Indoor and Outdoor Temperature Difference Lower Limit For Maximum Venting Open Factor {deltaC}
    5,                       !- Indoor and Outdoor Temperature Difference Upper Limit for Minimum Venting Open Factor {deltaC}
    0,                       !- Indoor and Outdoor Enthalpy Difference Lower Limit For Maximum Venting Open Factor {deltaJ/kg}
    300000,                  !- Indoor and Outdoor Enthalpy Difference Upper Limit for Minimum Venting Open Factor {deltaJ/kg}
    TLB Occupation Schedule, !- Venting Availability Schedule Name
    ,                        !- Occupant Ventilation Control Name
    PolygonHeight,           !- Equivalent Rectangle Method
    1;                       !- Equivalent Rectangle Aspect Ratio {dimensionless}

AirflowNetwork:MultiZone:Surface,
    P2_W11,                  !- Surface Name
    Windows,                 !- Leakage Component Name
    ,                        !- External Node Name
    0.45,                    !- Window/Door Opening Factor, or Crack Factor {dimensionless}
    ZoneLevel,               !- Ventilation Control Mode
    VN_19,                   !- Ventilation Control Zone Temperature Setpoint Schedule Name
    0.45,                    !- Minimum Venting Open Factor {dimensionless}
    0,                       !- Indoor and Outdoor Temperature Difference Lower Limit For Maximum Venting Open Factor {deltaC}
    5,                       !- Indoor and Outdoor Temperature Difference Upper Limit for Minimum Venting Open Factor {deltaC}
    0,                       !- Indoor and Outdoor Enthalpy Difference Lower Limit For Maximum Venting Open Factor {deltaJ/kg}
    300000,                  !- Indoor and Outdoor Enthalpy Difference Upper Limit for Minimum Venting Open Factor {deltaJ/kg}
    TLB Occupation Schedule, !- Venting Availability Schedule Name
    ,                        !- Occupant Ventilation Control Name
    PolygonHeight,           !- Equivalent Rectangle Method
    1;                       !- Equivalent Rectangle Aspect Ratio {dimensionless}

AirflowNetwork:MultiZone:Surface,
    P3_W12,                  !- Surface Name
    Windows,                 !- Leakage Component Name
    ,                        !- External Node Name
    0.45,                    !- Window/Door Opening Factor, or Crack Factor {dimensionless}
    ZoneLevel,               !- Ventilation Control Mode
    VN_19,                   !- Ventilation Control Zone Temperature Setpoint Schedule Name
    0.45,                    !- Minimum Venting Open Factor {dimensionless}
    0,                       !- Indoor and Outdoor Temperature Difference Lower Limit For Maximum Venting Open Factor {deltaC}
    5,                       !- Indoor and Outdoor Temperature Difference Upper Limit for Minimum Venting Open Factor {deltaC}
    0,                       !- Indoor and Outdoor Enthalpy Difference Lower Limit For Maximum Venting Open Factor {deltaJ/kg}
    300000,                  !- Indoor and Outdoor Enthalpy Difference Upper Limit for Minimum Venting Open Factor {deltaJ/kg}
    TLB Occupation Schedule, !- Venting Availability Schedule Name
    ,                        !- Occupant Ventilation Control Name
    PolygonHeight,           !- Equivalent Rectangle Method
    1;                       !- Equivalent Rectangle Aspect Ratio {dimensionless}

AirflowNetwork:MultiZone:Surface,
    P3_W13,                  !- Surface Name
    Windows,                 !- Leakage Component Name
    ,                        !- External Node Name
    0.45,                    !- Window/Door Opening Factor, or Crack Factor {dimensionless}
    ZoneLevel,               !- Ventilation Control Mode
    VN_19,                   !- Ventilation Control Zone Temperature Setpoint Schedule Name
    0.45,                    !- Minimum Venting Open Factor {dimensionless}
    0,                       !- Indoor and Outdoor Temperature Difference Lower Limit For Maximum Venting Open Factor {deltaC}
    5,                       !- Indoor and Outdoor Temperature Difference Upper Limit for Minimum Venting Open Factor {deltaC}
    0,                       !- Indoor and Outdoor Enthalpy Difference Lower Limit For Maximum Venting Open Factor {deltaJ/kg}
    300000,                  !- Indoor and Outdoor Enthalpy Difference Upper Limit for Minimum Venting Open Factor {deltaJ/kg}
    TLB Occupation Schedule, !- Venting Availability Schedule Name
    ,                        !- Occupant Ventilation Control Name
    PolygonHeight,           !- Equivalent Rectangle Method
    1;                       !- Equivalent Rectangle Aspect Ratio {dimensionless}

AirflowNetwork:MultiZone:Surface,
    P3_W14 (WC),             !- Surface Name
    Windows,                 !- Leakage Component Name
    ,                        !- External Node Name
    0.45,                    !- Window/Door Opening Factor, or Crack Factor {dimensionless}
    ZoneLevel,               !- Ventilation Control Mode
    VN_19,                   !- Ventilation Control Zone Temperature Setpoint Schedule Name
    0.45,                    !- Minimum Venting Open Factor {dimensionless}
    0,                       !- Indoor and Outdoor Temperature Difference Lower Limit For Maximum Venting Open Factor {deltaC}
    5,                       !- Indoor and Outdoor Temperature Difference Upper Limit for Minimum Venting Open Factor {deltaC}
    0,                       !- Indoor and Outdoor Enthalpy Difference Lower Limit For Maximum Venting Open Factor {deltaJ/kg}
    300000,                  !- Indoor and Outdoor Enthalpy Difference Upper Limit for Minimum Venting Open Factor {deltaJ/kg}
    TLB Occupation Schedule, !- Venting Availability Schedule Name
    ,                        !- Occupant Ventilation Control Name
    PolygonHeight,           !- Equivalent Rectangle Method
    1;                       !- Equivalent Rectangle Aspect Ratio {dimensionless}

AirflowNetwork:MultiZone:Surface,
    P3_W15 (Kitchen),        !- Surface Name
    Windows,                 !- Leakage Component Name
    ,                        !- External Node Name
    0.45,                    !- Window/Door Opening Factor, or Crack Factor {dimensionless}
    ZoneLevel,               !- Ventilation Control Mode
    VN_19,                   !- Ventilation Control Zone Temperature Setpoint Schedule Name
    0.45,                    !- Minimum Venting Open Factor {dimensionless}
    0,                       !- Indoor and Outdoor Temperature Difference Lower Limit For Maximum Venting Open Factor {deltaC}
    5,                       !- Indoor and Outdoor Temperature Difference Upper Limit for Minimum Venting Open Factor {deltaC}
    0,                       !- Indoor and Outdoor Enthalpy Difference Lower Limit For Maximum Venting Open Factor {deltaJ/kg}
    300000,                  !- Indoor and Outdoor Enthalpy Difference Upper Limit for Minimum Venting Open Factor {deltaJ/kg}
    TLB Occupation Schedule, !- Venting Availability Schedule Name
    ,                        !- Occupant Ventilation Control Name
    PolygonHeight,           !- Equivalent Rectangle Method
    1;                       !- Equivalent Rectangle Aspect Ratio {dimensionless}

AirflowNetwork:MultiZone:Surface,
    P3_W16,                  !- Surface Name
    Windows,                 !- Leakage Component Name
    ,                        !- External Node Name
    0.45,                    !- Window/Door Opening Factor, or Crack Factor {dimensionless}
    ZoneLevel,               !- Ventilation Control Mode
    VN_19,                   !- Ventilation Control Zone Temperature Setpoint Schedule Name
    0.45,                    !- Minimum Venting Open Factor {dimensionless}
    0,                       !- Indoor and Outdoor Temperature Difference Lower Limit For Maximum Venting Open Factor {deltaC}
    5,                       !- Indoor and Outdoor Temperature Difference Upper Limit for Minimum Venting Open Factor {deltaC}
    0,                       !- Indoor and Outdoor Enthalpy Difference Lower Limit For Maximum Venting Open Factor {deltaJ/kg}
    300000,                  !- Indoor and Outdoor Enthalpy Difference Upper Limit for Minimum Venting Open Factor {deltaJ/kg}
    TLB Occupation Schedule, !- Venting Availability Schedule Name
    ,                        !- Occupant Ventilation Control Name
    PolygonHeight,           !- Equivalent Rectangle Method
    1;                       !- Equivalent Rectangle Aspect Ratio {dimensionless}

AirflowNetwork:MultiZone:Surface,
    P3_W17,                  !- Surface Name
    Windows,                 !- Leakage Component Name
    ,                        !- External Node Name
    0.45,                    !- Window/Door Opening Factor, or Crack Factor {dimensionless}
    ZoneLevel,               !- Ventilation Control Mode
    VN_19,                   !- Ventilation Control Zone Temperature Setpoint Schedule Name
    0.45,                    !- Minimum Venting Open Factor {dimensionless}
    0,                       !- Indoor and Outdoor Temperature Difference Lower Limit For Maximum Venting Open Factor {deltaC}
    5,                       !- Indoor and Outdoor Temperature Difference Upper Limit for Minimum Venting Open Factor {deltaC}
    0,                       !- Indoor and Outdoor Enthalpy Difference Lower Limit For Maximum Venting Open Factor {deltaJ/kg}
    300000,                  !- Indoor and Outdoor Enthalpy Difference Upper Limit for Minimum Venting Open Factor {deltaJ/kg}
    TLB Occupation Schedule, !- Venting Availability Schedule Name
    ,                        !- Occupant Ventilation Control Name
    PolygonHeight,           !- Equivalent Rectangle Method
    1;                       !- Equivalent Rectangle Aspect Ratio {dimensionless}

AirflowNetwork:MultiZone:Surface,
    P3_W18 (Kitchen),        !- Surface Name
    Windows,                 !- Leakage Component Name
    ,                        !- External Node Name
    0.45,                    !- Window/Door Opening Factor, or Crack Factor {dimensionless}
    ZoneLevel,               !- Ventilation Control Mode
    VN_19,                   !- Ventilation Control Zone Temperature Setpoint Schedule Name
    0.45,                    !- Minimum Venting Open Factor {dimensionless}
    0,                       !- Indoor and Outdoor Temperature Difference Lower Limit For Maximum Venting Open Factor {deltaC}
    5,                       !- Indoor and Outdoor Temperature Difference Upper Limit for Minimum Venting Open Factor {deltaC}
    0,                       !- Indoor and Outdoor Enthalpy Difference Lower Limit For Maximum Venting Open Factor {deltaJ/kg}
    300000,                  !- Indoor and Outdoor Enthalpy Difference Upper Limit for Minimum Venting Open Factor {deltaJ/kg}
    TLB Occupation Schedule, !- Venting Availability Schedule Name
    ,                        !- Occupant Ventilation Control Name
    PolygonHeight,           !- Equivalent Rectangle Method
    1;                       !- Equivalent Rectangle Aspect Ratio {dimensionless}

AirflowNetwork:MultiZone:Surface,
    P3_W19 (WC),             !- Surface Name
    Windows,                 !- Leakage Component Name
    ,                        !- External Node Name
    0.45,                    !- Window/Door Opening Factor, or Crack Factor {dimensionless}
    ZoneLevel,               !- Ventilation Control Mode
    VN_19,                   !- Ventilation Control Zone Temperature Setpoint Schedule Name
    0.45,                    !- Minimum Venting Open Factor {dimensionless}
    0,                       !- Indoor and Outdoor Temperature Difference Lower Limit For Maximum Venting Open Factor {deltaC}
    5,                       !- Indoor and Outdoor Temperature Difference Upper Limit for Minimum Venting Open Factor {deltaC}
    0,                       !- Indoor and Outdoor Enthalpy Difference Lower Limit For Maximum Venting Open Factor {deltaJ/kg}
    300000,                  !- Indoor and Outdoor Enthalpy Difference Upper Limit for Minimum Venting Open Factor {deltaJ/kg}
    TLB Occupation Schedule, !- Venting Availability Schedule Name
    ,                        !- Occupant Ventilation Control Name
    PolygonHeight,           !- Equivalent Rectangle Method
    1;                       !- Equivalent Rectangle Aspect Ratio {dimensionless}

AirflowNetwork:MultiZone:Surface,
    P3_W20,                  !- Surface Name
    Windows,                 !- Leakage Component Name
    ,                        !- External Node Name
    0.45,                    !- Window/Door Opening Factor, or Crack Factor {dimensionless}
    ZoneLevel,               !- Ventilation Control Mode
    VN_19,                   !- Ventilation Control Zone Temperature Setpoint Schedule Name
    0.45,                    !- Minimum Venting Open Factor {dimensionless}
    0,                       !- Indoor and Outdoor Temperature Difference Lower Limit For Maximum Venting Open Factor {deltaC}
    5,                       !- Indoor and Outdoor Temperature Difference Upper Limit for Minimum Venting Open Factor {deltaC}
    0,                       !- Indoor and Outdoor Enthalpy Difference Lower Limit For Maximum Venting Open Factor {deltaJ/kg}
    300000,                  !- Indoor and Outdoor Enthalpy Difference Upper Limit for Minimum Venting Open Factor {deltaJ/kg}
    TLB Occupation Schedule, !- Venting Availability Schedule Name
    ,                        !- Occupant Ventilation Control Name
    PolygonHeight,           !- Equivalent Rectangle Method
    1;                       !- Equivalent Rectangle Aspect Ratio {dimensionless}

AirflowNetwork:MultiZone:Surface,
    P4_W01,                  !- Surface Name
    Windows,                 !- Leakage Component Name
    ,                        !- External Node Name
    0.45,                    !- Window/Door Opening Factor, or Crack Factor {dimensionless}
    ZoneLevel,               !- Ventilation Control Mode
    VN_19,                   !- Ventilation Control Zone Temperature Setpoint Schedule Name
    0.45,                    !- Minimum Venting Open Factor {dimensionless}
    0,                       !- Indoor and Outdoor Temperature Difference Lower Limit For Maximum Venting Open Factor {deltaC}
    5,                       !- Indoor and Outdoor Temperature Difference Upper Limit for Minimum Venting Open Factor {deltaC}
    0,                       !- Indoor and Outdoor Enthalpy Difference Lower Limit For Maximum Venting Open Factor {deltaJ/kg}
    300000,                  !- Indoor and Outdoor Enthalpy Difference Upper Limit for Minimum Venting Open Factor {deltaJ/kg}
    TLB Occupation Schedule, !- Venting Availability Schedule Name
    ,                        !- Occupant Ventilation Control Name
    PolygonHeight,           !- Equivalent Rectangle Method
    1;                       !- Equivalent Rectangle Aspect Ratio {dimensionless}

AirflowNetwork:MultiZone:Surface,
    P4_W02,                  !- Surface Name
    Windows,                 !- Leakage Component Name
    ,                        !- External Node Name
    0.45,                    !- Window/Door Opening Factor, or Crack Factor {dimensionless}
    ZoneLevel,               !- Ventilation Control Mode
    VN_19,                   !- Ventilation Control Zone Temperature Setpoint Schedule Name
    0.45,                    !- Minimum Venting Open Factor {dimensionless}
    0,                       !- Indoor and Outdoor Temperature Difference Lower Limit For Maximum Venting Open Factor {deltaC}
    5,                       !- Indoor and Outdoor Temperature Difference Upper Limit for Minimum Venting Open Factor {deltaC}
    0,                       !- Indoor and Outdoor Enthalpy Difference Lower Limit For Maximum Venting Open Factor {deltaJ/kg}
    300000,                  !- Indoor and Outdoor Enthalpy Difference Upper Limit for Minimum Venting Open Factor {deltaJ/kg}
    TLB Occupation Schedule, !- Venting Availability Schedule Name
    ,                        !- Occupant Ventilation Control Name
    PolygonHeight,           !- Equivalent Rectangle Method
    1;                       !- Equivalent Rectangle Aspect Ratio {dimensionless}

AirflowNetwork:MultiZone:Surface,
    P4_W03,                  !- Surface Name
    Windows,                 !- Leakage Component Name
    ,                        !- External Node Name
    0.45,                    !- Window/Door Opening Factor, or Crack Factor {dimensionless}
    ZoneLevel,               !- Ventilation Control Mode
    VN_19,                   !- Ventilation Control Zone Temperature Setpoint Schedule Name
    0.45,                    !- Minimum Venting Open Factor {dimensionless}
    0,                       !- Indoor and Outdoor Temperature Difference Lower Limit For Maximum Venting Open Factor {deltaC}
    5,                       !- Indoor and Outdoor Temperature Difference Upper Limit for Minimum Venting Open Factor {deltaC}
    0,                       !- Indoor and Outdoor Enthalpy Difference Lower Limit For Maximum Venting Open Factor {deltaJ/kg}
    300000,                  !- Indoor and Outdoor Enthalpy Difference Upper Limit for Minimum Venting Open Factor {deltaJ/kg}
    TLB Occupation Schedule, !- Venting Availability Schedule Name
    ,                        !- Occupant Ventilation Control Name
    PolygonHeight,           !- Equivalent Rectangle Method
    1;                       !- Equivalent Rectangle Aspect Ratio {dimensionless}

AirflowNetwork:MultiZone:Surface,
    P4_W04 (WC),             !- Surface Name
    Windows,                 !- Leakage Component Name
    ,                        !- External Node Name
    0.45,                    !- Window/Door Opening Factor, or Crack Factor {dimensionless}
    ZoneLevel,               !- Ventilation Control Mode
    VN_19,                   !- Ventilation Control Zone Temperature Setpoint Schedule Name
    0.45,                    !- Minimum Venting Open Factor {dimensionless}
    0,                       !- Indoor and Outdoor Temperature Difference Lower Limit For Maximum Venting Open Factor {deltaC}
    5,                       !- Indoor and Outdoor Temperature Difference Upper Limit for Minimum Venting Open Factor {deltaC}
    0,                       !- Indoor and Outdoor Enthalpy Difference Lower Limit For Maximum Venting Open Factor {deltaJ/kg}
    300000,                  !- Indoor and Outdoor Enthalpy Difference Upper Limit for Minimum Venting Open Factor {deltaJ/kg}
    TLB Occupation Schedule, !- Venting Availability Schedule Name
    ,                        !- Occupant Ventilation Control Name
    PolygonHeight,           !- Equivalent Rectangle Method
    1;                       !- Equivalent Rectangle Aspect Ratio {dimensionless}

AirflowNetwork:MultiZone:Surface,
    P4_W05,                  !- Surface Name
    Windows,                 !- Leakage Component Name
    ,                        !- External Node Name
    0.45,                    !- Window/Door Opening Factor, or Crack Factor {dimensionless}
    ZoneLevel,               !- Ventilation Control Mode
    VN_19,                   !- Ventilation Control Zone Temperature Setpoint Schedule Name
    0.45,                    !- Minimum Venting Open Factor {dimensionless}
    0,                       !- Indoor and Outdoor Temperature Difference Lower Limit For Maximum Venting Open Factor {deltaC}
    5,                       !- Indoor and Outdoor Temperature Difference Upper Limit for Minimum Venting Open Factor {deltaC}
    0,                       !- Indoor and Outdoor Enthalpy Difference Lower Limit For Maximum Venting Open Factor {deltaJ/kg}
    300000,                  !- Indoor and Outdoor Enthalpy Difference Upper Limit for Minimum Venting Open Factor {deltaJ/kg}
    TLB Occupation Schedule, !- Venting Availability Schedule Name
    ,                        !- Occupant Ventilation Control Name
    PolygonHeight,           !- Equivalent Rectangle Method
    1;                       !- Equivalent Rectangle Aspect Ratio {dimensionless}

AirflowNetwork:MultiZone:Surface,
    P4_W06,                  !- Surface Name
    Windows,                 !- Leakage Component Name
    ,                        !- External Node Name
    0.45,                    !- Window/Door Opening Factor, or Crack Factor {dimensionless}
    ZoneLevel,               !- Ventilation Control Mode
    VN_19,                   !- Ventilation Control Zone Temperature Setpoint Schedule Name
    0.45,                    !- Minimum Venting Open Factor {dimensionless}
    0,                       !- Indoor and Outdoor Temperature Difference Lower Limit For Maximum Venting Open Factor {deltaC}
    5,                       !- Indoor and Outdoor Temperature Difference Upper Limit for Minimum Venting Open Factor {deltaC}
    0,                       !- Indoor and Outdoor Enthalpy Difference Lower Limit For Maximum Venting Open Factor {deltaJ/kg}
    300000,                  !- Indoor and Outdoor Enthalpy Difference Upper Limit for Minimum Venting Open Factor {deltaJ/kg}
    TLB Occupation Schedule, !- Venting Availability Schedule Name
    ,                        !- Occupant Ventilation Control Name
    PolygonHeight,           !- Equivalent Rectangle Method
    1;                       !- Equivalent Rectangle Aspect Ratio {dimensionless}

AirflowNetwork:MultiZone:Surface,
    P4_W07,                  !- Surface Name
    Windows,                 !- Leakage Component Name
    ,                        !- External Node Name
    0.45,                    !- Window/Door Opening Factor, or Crack Factor {dimensionless}
    ZoneLevel,               !- Ventilation Control Mode
    VN_19,                   !- Ventilation Control Zone Temperature Setpoint Schedule Name
    0.45,                    !- Minimum Venting Open Factor {dimensionless}
    0,                       !- Indoor and Outdoor Temperature Difference Lower Limit For Maximum Venting Open Factor {deltaC}
    5,                       !- Indoor and Outdoor Temperature Difference Upper Limit for Minimum Venting Open Factor {deltaC}
    0,                       !- Indoor and Outdoor Enthalpy Difference Lower Limit For Maximum Venting Open Factor {deltaJ/kg}
    300000,                  !- Indoor and Outdoor Enthalpy Difference Upper Limit for Minimum Venting Open Factor {deltaJ/kg}
    TLB Occupation Schedule, !- Venting Availability Schedule Name
    ,                        !- Occupant Ventilation Control Name
    PolygonHeight,           !- Equivalent Rectangle Method
    1;                       !- Equivalent Rectangle Aspect Ratio {dimensionless}

AirflowNetwork:MultiZone:Surface,
    P4_W08 (Kitchen),        !- Surface Name
    Windows,                 !- Leakage Component Name
    ,                        !- External Node Name
    0.45,                    !- Window/Door Opening Factor, or Crack Factor {dimensionless}
    ZoneLevel,               !- Ventilation Control Mode
    VN_19,                   !- Ventilation Control Zone Temperature Setpoint Schedule Name
    0.45,                    !- Minimum Venting Open Factor {dimensionless}
    0,                       !- Indoor and Outdoor Temperature Difference Lower Limit For Maximum Venting Open Factor {deltaC}
    5,                       !- Indoor and Outdoor Temperature Difference Upper Limit for Minimum Venting Open Factor {deltaC}
    0,                       !- Indoor and Outdoor Enthalpy Difference Lower Limit For Maximum Venting Open Factor {deltaJ/kg}
    300000,                  !- Indoor and Outdoor Enthalpy Difference Upper Limit for Minimum Venting Open Factor {deltaJ/kg}
    TLB Occupation Schedule, !- Venting Availability Schedule Name
    ,                        !- Occupant Ventilation Control Name
    PolygonHeight,           !- Equivalent Rectangle Method
    1;                       !- Equivalent Rectangle Aspect Ratio {dimensionless}

AirflowNetwork:MultiZone:Surface,
    P4_W09 (WC),             !- Surface Name
    Windows,                 !- Leakage Component Name
    ,                        !- External Node Name
    0.45,                    !- Window/Door Opening Factor, or Crack Factor {dimensionless}
    ZoneLevel,               !- Ventilation Control Mode
    VN_19,                   !- Ventilation Control Zone Temperature Setpoint Schedule Name
    0.45,                    !- Minimum Venting Open Factor {dimensionless}
    0,                       !- Indoor and Outdoor Temperature Difference Lower Limit For Maximum Venting Open Factor {deltaC}
    5,                       !- Indoor and Outdoor Temperature Difference Upper Limit for Minimum Venting Open Factor {deltaC}
    0,                       !- Indoor and Outdoor Enthalpy Difference Lower Limit For Maximum Venting Open Factor {deltaJ/kg}
    300000,                  !- Indoor and Outdoor Enthalpy Difference Upper Limit for Minimum Venting Open Factor {deltaJ/kg}
    TLB Occupation Schedule, !- Venting Availability Schedule Name
    ,                        !- Occupant Ventilation Control Name
    PolygonHeight,           !- Equivalent Rectangle Method
    1;                       !- Equivalent Rectangle Aspect Ratio {dimensionless}

AirflowNetwork:MultiZone:Surface,
    P4_W10,                  !- Surface Name
    Windows,                 !- Leakage Component Name
    ,                        !- External Node Name
    0.45,                    !- Window/Door Opening Factor, or Crack Factor {dimensionless}
    ZoneLevel,               !- Ventilation Control Mode
    VN_19,                   !- Ventilation Control Zone Temperature Setpoint Schedule Name
    0.45,                    !- Minimum Venting Open Factor {dimensionless}
    0,                       !- Indoor and Outdoor Temperature Difference Lower Limit For Maximum Venting Open Factor {deltaC}
    5,                       !- Indoor and Outdoor Temperature Difference Upper Limit for Minimum Venting Open Factor {deltaC}
    0,                       !- Indoor and Outdoor Enthalpy Difference Lower Limit For Maximum Venting Open Factor {deltaJ/kg}
    300000,                  !- Indoor and Outdoor Enthalpy Difference Upper Limit for Minimum Venting Open Factor {deltaJ/kg}
    TLB Occupation Schedule, !- Venting Availability Schedule Name
    ,                        !- Occupant Ventilation Control Name
    PolygonHeight,           !- Equivalent Rectangle Method
    1;                       !- Equivalent Rectangle Aspect Ratio {dimensionless}

AirflowNetwork:MultiZone:Surface,
    P4_W11,                  !- Surface Name
    Windows,                 !- Leakage Component Name
    ,                        !- External Node Name
    0.45,                    !- Window/Door Opening Factor, or Crack Factor {dimensionless}
    ZoneLevel,               !- Ventilation Control Mode
    VN_19,                   !- Ventilation Control Zone Temperature Setpoint Schedule Name
    0.45,                    !- Minimum Venting Open Factor {dimensionless}
    0,                       !- Indoor and Outdoor Temperature Difference Lower Limit For Maximum Venting Open Factor {deltaC}
    5,                       !- Indoor and Outdoor Temperature Difference Upper Limit for Minimum Venting Open Factor {deltaC}
    0,                       !- Indoor and Outdoor Enthalpy Difference Lower Limit For Maximum Venting Open Factor {deltaJ/kg}
    300000,                  !- Indoor and Outdoor Enthalpy Difference Upper Limit for Minimum Venting Open Factor {deltaJ/kg}
    TLB Occupation Schedule, !- Venting Availability Schedule Name
    ,                        !- Occupant Ventilation Control Name
    PolygonHeight,           !- Equivalent Rectangle Method
    1;                       !- Equivalent Rectangle Aspect Ratio {dimensionless}

AirflowNetwork:MultiZone:Surface,
    P4_W12,                  !- Surface Name
    Windows,                 !- Leakage Component Name
    ,                        !- External Node Name
    0.45,                    !- Window/Door Opening Factor, or Crack Factor {dimensionless}
    ZoneLevel,               !- Ventilation Control Mode
    VN_19,                   !- Ventilation Control Zone Temperature Setpoint Schedule Name
    0.45,                    !- Minimum Venting Open Factor {dimensionless}
    0,                       !- Indoor and Outdoor Temperature Difference Lower Limit For Maximum Venting Open Factor {deltaC}
    5,                       !- Indoor and Outdoor Temperature Difference Upper Limit for Minimum Venting Open Factor {deltaC}
    0,                       !- Indoor and Outdoor Enthalpy Difference Lower Limit For Maximum Venting Open Factor {deltaJ/kg}
    300000,                  !- Indoor and Outdoor Enthalpy Difference Upper Limit for Minimum Venting Open Factor {deltaJ/kg}
    TLB Occupation Schedule, !- Venting Availability Schedule Name
    ,                        !- Occupant Ventilation Control Name
    PolygonHeight,           !- Equivalent Rectangle Method
    1;                       !- Equivalent Rectangle Aspect Ratio {dimensionless}

AirflowNetwork:MultiZone:Surface,
    P4_W13,                  !- Surface Name
    Windows,                 !- Leakage Component Name
    ,                        !- External Node Name
    0.45,                    !- Window/Door Opening Factor, or Crack Factor {dimensionless}
    ZoneLevel,               !- Ventilation Control Mode
    VN_19,                   !- Ventilation Control Zone Temperature Setpoint Schedule Name
    0.45,                    !- Minimum Venting Open Factor {dimensionless}
    0,                       !- Indoor and Outdoor Temperature Difference Lower Limit For Maximum Venting Open Factor {deltaC}
    5,                       !- Indoor and Outdoor Temperature Difference Upper Limit for Minimum Venting Open Factor {deltaC}
    0,                       !- Indoor and Outdoor Enthalpy Difference Lower Limit For Maximum Venting Open Factor {deltaJ/kg}
    300000,                  !- Indoor and Outdoor Enthalpy Difference Upper Limit for Minimum Venting Open Factor {deltaJ/kg}
    TLB Occupation Schedule, !- Venting Availability Schedule Name
    ,                        !- Occupant Ventilation Control Name
    PolygonHeight,           !- Equivalent Rectangle Method
    1;                       !- Equivalent Rectangle Aspect Ratio {dimensionless}

AirflowNetwork:MultiZone:Surface,
    P4_W14 (WC),             !- Surface Name
    Windows,                 !- Leakage Component Name
    ,                        !- External Node Name
    0.45,                    !- Window/Door Opening Factor, or Crack Factor {dimensionless}
    ZoneLevel,               !- Ventilation Control Mode
    VN_19,                   !- Ventilation Control Zone Temperature Setpoint Schedule Name
    0.45,                    !- Minimum Venting Open Factor {dimensionless}
    0,                       !- Indoor and Outdoor Temperature Difference Lower Limit For Maximum Venting Open Factor {deltaC}
    5,                       !- Indoor and Outdoor Temperature Difference Upper Limit for Minimum Venting Open Factor {deltaC}
    0,                       !- Indoor and Outdoor Enthalpy Difference Lower Limit For Maximum Venting Open Factor {deltaJ/kg}
    300000,                  !- Indoor and Outdoor Enthalpy Difference Upper Limit for Minimum Venting Open Factor {deltaJ/kg}
    TLB Occupation Schedule, !- Venting Availability Schedule Name
    ,                        !- Occupant Ventilation Control Name
    PolygonHeight,           !- Equivalent Rectangle Method
    1;                       !- Equivalent Rectangle Aspect Ratio {dimensionless}

AirflowNetwork:MultiZone:Surface,
    P4_W15 (Kitchen),        !- Surface Name
    Windows,                 !- Leakage Component Name
    ,                        !- External Node Name
    0.45,                    !- Window/Door Opening Factor, or Crack Factor {dimensionless}
    ZoneLevel,               !- Ventilation Control Mode
    VN_19,                   !- Ventilation Control Zone Temperature Setpoint Schedule Name
    0.45,                    !- Minimum Venting Open Factor {dimensionless}
    0,                       !- Indoor and Outdoor Temperature Difference Lower Limit For Maximum Venting Open Factor {deltaC}
    5,                       !- Indoor and Outdoor Temperature Difference Upper Limit for Minimum Venting Open Factor {deltaC}
    0,                       !- Indoor and Outdoor Enthalpy Difference Lower Limit For Maximum Venting Open Factor {deltaJ/kg}
    300000,                  !- Indoor and Outdoor Enthalpy Difference Upper Limit for Minimum Venting Open Factor {deltaJ/kg}
    TLB Occupation Schedule, !- Venting Availability Schedule Name
    ,                        !- Occupant Ventilation Control Name
    PolygonHeight,           !- Equivalent Rectangle Method
    1;                       !- Equivalent Rectangle Aspect Ratio {dimensionless}

AirflowNetwork:MultiZone:Surface,
    P4_W16,                  !- Surface Name
    Windows,                 !- Leakage Component Name
    ,                        !- External Node Name
    0.45,                    !- Window/Door Opening Factor, or Crack Factor {dimensionless}
    ZoneLevel,               !- Ventilation Control Mode
    VN_19,                   !- Ventilation Control Zone Temperature Setpoint Schedule Name
    0.45,                    !- Minimum Venting Open Factor {dimensionless}
    0,                       !- Indoor and Outdoor Temperature Difference Lower Limit For Maximum Venting Open Factor {deltaC}
    5,                       !- Indoor and Outdoor Temperature Difference Upper Limit for Minimum Venting Open Factor {deltaC}
    0,                       !- Indoor and Outdoor Enthalpy Difference Lower Limit For Maximum Venting Open Factor {deltaJ/kg}
    300000,                  !- Indoor and Outdoor Enthalpy Difference Upper Limit for Minimum Venting Open Factor {deltaJ/kg}
    TLB Occupation Schedule, !- Venting Availability Schedule Name
    ,                        !- Occupant Ventilation Control Name
    PolygonHeight,           !- Equivalent Rectangle Method
    1;                       !- Equivalent Rectangle Aspect Ratio {dimensionless}

AirflowNetwork:MultiZone:Surface,
    P4_W17,                  !- Surface Name
    Windows,                 !- Leakage Component Name
    ,                        !- External Node Name
    0.45,                    !- Window/Door Opening Factor, or Crack Factor {dimensionless}
    ZoneLevel,               !- Ventilation Control Mode
    VN_19,                   !- Ventilation Control Zone Temperature Setpoint Schedule Name
    0.45,                    !- Minimum Venting Open Factor {dimensionless}
    0,                       !- Indoor and Outdoor Temperature Difference Lower Limit For Maximum Venting Open Factor {deltaC}
    5,                       !- Indoor and Outdoor Temperature Difference Upper Limit for Minimum Venting Open Factor {deltaC}
    0,                       !- Indoor and Outdoor Enthalpy Difference Lower Limit For Maximum Venting Open Factor {deltaJ/kg}
    300000,                  !- Indoor and Outdoor Enthalpy Difference Upper Limit for Minimum Venting Open Factor {deltaJ/kg}
    TLB Occupation Schedule, !- Venting Availability Schedule Name
    ,                        !- Occupant Ventilation Control Name
    PolygonHeight,           !- Equivalent Rectangle Method
    1;                       !- Equivalent Rectangle Aspect Ratio {dimensionless}

AirflowNetwork:MultiZone:Surface,
    P4_W18 (Kitchen),        !- Surface Name
    Windows,                 !- Leakage Component Name
    ,                        !- External Node Name
    0.45,                    !- Window/Door Opening Factor, or Crack Factor {dimensionless}
    ZoneLevel,               !- Ventilation Control Mode
    VN_19,                   !- Ventilation Control Zone Temperature Setpoint Schedule Name
    0.45,                    !- Minimum Venting Open Factor {dimensionless}
    0,                       !- Indoor and Outdoor Temperature Difference Lower Limit For Maximum Venting Open Factor {deltaC}
    5,                       !- Indoor and Outdoor Temperature Difference Upper Limit for Minimum Venting Open Factor {deltaC}
    0,                       !- Indoor and Outdoor Enthalpy Difference Lower Limit For Maximum Venting Open Factor {deltaJ/kg}
    300000,                  !- Indoor and Outdoor Enthalpy Difference Upper Limit for Minimum Venting Open Factor {deltaJ/kg}
    TLB Occupation Schedule, !- Venting Availability Schedule Name
    ,                        !- Occupant Ventilation Control Name
    PolygonHeight,           !- Equivalent Rectangle Method
    1;                       !- Equivalent Rectangle Aspect Ratio {dimensionless}

AirflowNetwork:MultiZone:Surface,
    P4_W19 (WC),             !- Surface Name
    Windows,                 !- Leakage Component Name
    ,                        !- External Node Name
    0.45,                    !- Window/Door Opening Factor, or Crack Factor {dimensionless}
    ZoneLevel,               !- Ventilation Control Mode
    VN_19,                   !- Ventilation Control Zone Temperature Setpoint Schedule Name
    0.45,                    !- Minimum Venting Open Factor {dimensionless}
    0,                       !- Indoor and Outdoor Temperature Difference Lower Limit For Maximum Venting Open Factor {deltaC}
    5,                       !- Indoor and Outdoor Temperature Difference Upper Limit for Minimum Venting Open Factor {deltaC}
    0,                       !- Indoor and Outdoor Enthalpy Difference Lower Limit For Maximum Venting Open Factor {deltaJ/kg}
    300000,                  !- Indoor and Outdoor Enthalpy Difference Upper Limit for Minimum Venting Open Factor {deltaJ/kg}
    TLB Occupation Schedule, !- Venting Availability Schedule Name
    ,                        !- Occupant Ventilation Control Name
    PolygonHeight,           !- Equivalent Rectangle Method
    1;                       !- Equivalent Rectangle Aspect Ratio {dimensionless}

AirflowNetwork:MultiZone:Surface,
    P4_W20,                  !- Surface Name
    Windows,                 !- Leakage Component Name
    ,                        !- External Node Name
    0.45,                    !- Window/Door Opening Factor, or Crack Factor {dimensionless}
    ZoneLevel,               !- Ventilation Control Mode
    VN_19,                   !- Ventilation Control Zone Temperature Setpoint Schedule Name
    0.45,                    !- Minimum Venting Open Factor {dimensionless}
    0,                       !- Indoor and Outdoor Temperature Difference Lower Limit For Maximum Venting Open Factor {deltaC}
    5,                       !- Indoor and Outdoor Temperature Difference Upper Limit for Minimum Venting Open Factor {deltaC}
    0,                       !- Indoor and Outdoor Enthalpy Difference Lower Limit For Maximum Venting Open Factor {deltaJ/kg}
    300000,                  !- Indoor and Outdoor Enthalpy Difference Upper Limit for Minimum Venting Open Factor {deltaJ/kg}
    TLB Occupation Schedule, !- Venting Availability Schedule Name
    ,                        !- Occupant Ventilation Control Name
    PolygonHeight,           !- Equivalent Rectangle Method
    1;                       !- Equivalent Rectangle Aspect Ratio {dimensionless}

AirflowNetwork:MultiZone:Surface,
    P5_W01,                  !- Surface Name
    Windows,                 !- Leakage Component Name
    ,                        !- External Node Name
    0.45,                    !- Window/Door Opening Factor, or Crack Factor {dimensionless}
    ZoneLevel,               !- Ventilation Control Mode
    VN_19,                   !- Ventilation Control Zone Temperature Setpoint Schedule Name
    0.45,                    !- Minimum Venting Open Factor {dimensionless}
    0,                       !- Indoor and Outdoor Temperature Difference Lower Limit For Maximum Venting Open Factor {deltaC}
    5,                       !- Indoor and Outdoor Temperature Difference Upper Limit for Minimum Venting Open Factor {deltaC}
    0,                       !- Indoor and Outdoor Enthalpy Difference Lower Limit For Maximum Venting Open Factor {deltaJ/kg}
    300000,                  !- Indoor and Outdoor Enthalpy Difference Upper Limit for Minimum Venting Open Factor {deltaJ/kg}
    TLB Occupation Schedule, !- Venting Availability Schedule Name
    ,                        !- Occupant Ventilation Control Name
    PolygonHeight,           !- Equivalent Rectangle Method
    1;                       !- Equivalent Rectangle Aspect Ratio {dimensionless}

AirflowNetwork:MultiZone:Surface,
    P5_W02,                  !- Surface Name
    Windows,                 !- Leakage Component Name
    ,                        !- External Node Name
    0.45,                    !- Window/Door Opening Factor, or Crack Factor {dimensionless}
    ZoneLevel,               !- Ventilation Control Mode
    VN_19,                   !- Ventilation Control Zone Temperature Setpoint Schedule Name
    0.45,                    !- Minimum Venting Open Factor {dimensionless}
    0,                       !- Indoor and Outdoor Temperature Difference Lower Limit For Maximum Venting Open Factor {deltaC}
    5,                       !- Indoor and Outdoor Temperature Difference Upper Limit for Minimum Venting Open Factor {deltaC}
    0,                       !- Indoor and Outdoor Enthalpy Difference Lower Limit For Maximum Venting Open Factor {deltaJ/kg}
    300000,                  !- Indoor and Outdoor Enthalpy Difference Upper Limit for Minimum Venting Open Factor {deltaJ/kg}
    TLB Occupation Schedule, !- Venting Availability Schedule Name
    ,                        !- Occupant Ventilation Control Name
    PolygonHeight,           !- Equivalent Rectangle Method
    1;                       !- Equivalent Rectangle Aspect Ratio {dimensionless}

AirflowNetwork:MultiZone:Surface,
    P5_W03,                  !- Surface Name
    Windows,                 !- Leakage Component Name
    ,                        !- External Node Name
    0.45,                    !- Window/Door Opening Factor, or Crack Factor {dimensionless}
    ZoneLevel,               !- Ventilation Control Mode
    VN_19,                   !- Ventilation Control Zone Temperature Setpoint Schedule Name
    0.45,                    !- Minimum Venting Open Factor {dimensionless}
    0,                       !- Indoor and Outdoor Temperature Difference Lower Limit For Maximum Venting Open Factor {deltaC}
    5,                       !- Indoor and Outdoor Temperature Difference Upper Limit for Minimum Venting Open Factor {deltaC}
    0,                       !- Indoor and Outdoor Enthalpy Difference Lower Limit For Maximum Venting Open Factor {deltaJ/kg}
    300000,                  !- Indoor and Outdoor Enthalpy Difference Upper Limit for Minimum Venting Open Factor {deltaJ/kg}
    TLB Occupation Schedule, !- Venting Availability Schedule Name
    ,                        !- Occupant Ventilation Control Name
    PolygonHeight,           !- Equivalent Rectangle Method
    1;                       !- Equivalent Rectangle Aspect Ratio {dimensionless}

AirflowNetwork:MultiZone:Surface,
    P5_W04 (WC),             !- Surface Name
    Windows,                 !- Leakage Component Name
    ,                        !- External Node Name
    0.45,                    !- Window/Door Opening Factor, or Crack Factor {dimensionless}
    ZoneLevel,               !- Ventilation Control Mode
    VN_19,                   !- Ventilation Control Zone Temperature Setpoint Schedule Name
    0.45,                    !- Minimum Venting Open Factor {dimensionless}
    0,                       !- Indoor and Outdoor Temperature Difference Lower Limit For Maximum Venting Open Factor {deltaC}
    5,                       !- Indoor and Outdoor Temperature Difference Upper Limit for Minimum Venting Open Factor {deltaC}
    0,                       !- Indoor and Outdoor Enthalpy Difference Lower Limit For Maximum Venting Open Factor {deltaJ/kg}
    300000,                  !- Indoor and Outdoor Enthalpy Difference Upper Limit for Minimum Venting Open Factor {deltaJ/kg}
    TLB Occupation Schedule, !- Venting Availability Schedule Name
    ,                        !- Occupant Ventilation Control Name
    PolygonHeight,           !- Equivalent Rectangle Method
    1;                       !- Equivalent Rectangle Aspect Ratio {dimensionless}

AirflowNetwork:MultiZone:Surface,
    P5_W05 (Kitchen),        !- Surface Name
    Windows,                 !- Leakage Component Name
    ,                        !- External Node Name
    0.45,                    !- Window/Door Opening Factor, or Crack Factor {dimensionless}
    ZoneLevel,               !- Ventilation Control Mode
    VN_19,                   !- Ventilation Control Zone Temperature Setpoint Schedule Name
    0.45,                    !- Minimum Venting Open Factor {dimensionless}
    0,                       !- Indoor and Outdoor Temperature Difference Lower Limit For Maximum Venting Open Factor {deltaC}
    5,                       !- Indoor and Outdoor Temperature Difference Upper Limit for Minimum Venting Open Factor {deltaC}
    0,                       !- Indoor and Outdoor Enthalpy Difference Lower Limit For Maximum Venting Open Factor {deltaJ/kg}
    300000,                  !- Indoor and Outdoor Enthalpy Difference Upper Limit for Minimum Venting Open Factor {deltaJ/kg}
    TLB Occupation Schedule, !- Venting Availability Schedule Name
    ,                        !- Occupant Ventilation Control Name
    PolygonHeight,           !- Equivalent Rectangle Method
    1;                       !- Equivalent Rectangle Aspect Ratio {dimensionless}

AirflowNetwork:MultiZone:Surface,
    P5_W06,                  !- Surface Name
    Windows,                 !- Leakage Component Name
    ,                        !- External Node Name
    0.45,                    !- Window/Door Opening Factor, or Crack Factor {dimensionless}
    ZoneLevel,               !- Ventilation Control Mode
    VN_19,                   !- Ventilation Control Zone Temperature Setpoint Schedule Name
    0.45,                    !- Minimum Venting Open Factor {dimensionless}
    0,                       !- Indoor and Outdoor Temperature Difference Lower Limit For Maximum Venting Open Factor {deltaC}
    5,                       !- Indoor and Outdoor Temperature Difference Upper Limit for Minimum Venting Open Factor {deltaC}
    0,                       !- Indoor and Outdoor Enthalpy Difference Lower Limit For Maximum Venting Open Factor {deltaJ/kg}
    300000,                  !- Indoor and Outdoor Enthalpy Difference Upper Limit for Minimum Venting Open Factor {deltaJ/kg}
    TLB Occupation Schedule, !- Venting Availability Schedule Name
    ,                        !- Occupant Ventilation Control Name
    PolygonHeight,           !- Equivalent Rectangle Method
    1;                       !- Equivalent Rectangle Aspect Ratio {dimensionless}

AirflowNetwork:MultiZone:Surface,
    P5_W07,                  !- Surface Name
    Windows,                 !- Leakage Component Name
    ,                        !- External Node Name
    0.45,                    !- Window/Door Opening Factor, or Crack Factor {dimensionless}
    ZoneLevel,               !- Ventilation Control Mode
    VN_19,                   !- Ventilation Control Zone Temperature Setpoint Schedule Name
    0.45,                    !- Minimum Venting Open Factor {dimensionless}
    0,                       !- Indoor and Outdoor Temperature Difference Lower Limit For Maximum Venting Open Factor {deltaC}
    5,                       !- Indoor and Outdoor Temperature Difference Upper Limit for Minimum Venting Open Factor {deltaC}
    0,                       !- Indoor and Outdoor Enthalpy Difference Lower Limit For Maximum Venting Open Factor {deltaJ/kg}
    300000,                  !- Indoor and Outdoor Enthalpy Difference Upper Limit for Minimum Venting Open Factor {deltaJ/kg}
    TLB Occupation Schedule, !- Venting Availability Schedule Name
    ,                        !- Occupant Ventilation Control Name
    PolygonHeight,           !- Equivalent Rectangle Method
    1;                       !- Equivalent Rectangle Aspect Ratio {dimensionless}

AirflowNetwork:MultiZone:Surface,
    P5_W08 (Kitchen),        !- Surface Name
    Windows,                 !- Leakage Component Name
    ,                        !- External Node Name
    0.45,                    !- Window/Door Opening Factor, or Crack Factor {dimensionless}
    ZoneLevel,               !- Ventilation Control Mode
    VN_19,                   !- Ventilation Control Zone Temperature Setpoint Schedule Name
    0.45,                    !- Minimum Venting Open Factor {dimensionless}
    0,                       !- Indoor and Outdoor Temperature Difference Lower Limit For Maximum Venting Open Factor {deltaC}
    5,                       !- Indoor and Outdoor Temperature Difference Upper Limit for Minimum Venting Open Factor {deltaC}
    0,                       !- Indoor and Outdoor Enthalpy Difference Lower Limit For Maximum Venting Open Factor {deltaJ/kg}
    300000,                  !- Indoor and Outdoor Enthalpy Difference Upper Limit for Minimum Venting Open Factor {deltaJ/kg}
    TLB Occupation Schedule, !- Venting Availability Schedule Name
    ,                        !- Occupant Ventilation Control Name
    PolygonHeight,           !- Equivalent Rectangle Method
    1;                       !- Equivalent Rectangle Aspect Ratio {dimensionless}

AirflowNetwork:MultiZone:Surface,
    P5_W09 (WC),             !- Surface Name
    Windows,                 !- Leakage Component Name
    ,                        !- External Node Name
    0.45,                    !- Window/Door Opening Factor, or Crack Factor {dimensionless}
    ZoneLevel,               !- Ventilation Control Mode
    VN_19,                   !- Ventilation Control Zone Temperature Setpoint Schedule Name
    0.45,                    !- Minimum Venting Open Factor {dimensionless}
    0,                       !- Indoor and Outdoor Temperature Difference Lower Limit For Maximum Venting Open Factor {deltaC}
    5,                       !- Indoor and Outdoor Temperature Difference Upper Limit for Minimum Venting Open Factor {deltaC}
    0,                       !- Indoor and Outdoor Enthalpy Difference Lower Limit For Maximum Venting Open Factor {deltaJ/kg}
    300000,                  !- Indoor and Outdoor Enthalpy Difference Upper Limit for Minimum Venting Open Factor {deltaJ/kg}
    TLB Occupation Schedule, !- Venting Availability Schedule Name
    ,                        !- Occupant Ventilation Control Name
    PolygonHeight,           !- Equivalent Rectangle Method
    1;                       !- Equivalent Rectangle Aspect Ratio {dimensionless}

AirflowNetwork:MultiZone:Surface,
    P5_W10,                  !- Surface Name
    Windows,                 !- Leakage Component Name
    ,                        !- External Node Name
    0.45,                    !- Window/Door Opening Factor, or Crack Factor {dimensionless}
    ZoneLevel,               !- Ventilation Control Mode
    VN_19,                   !- Ventilation Control Zone Temperature Setpoint Schedule Name
    0.45,                    !- Minimum Venting Open Factor {dimensionless}
    0,                       !- Indoor and Outdoor Temperature Difference Lower Limit For Maximum Venting Open Factor {deltaC}
    5,                       !- Indoor and Outdoor Temperature Difference Upper Limit for Minimum Venting Open Factor {deltaC}
    0,                       !- Indoor and Outdoor Enthalpy Difference Lower Limit For Maximum Venting Open Factor {deltaJ/kg}
    300000,                  !- Indoor and Outdoor Enthalpy Difference Upper Limit for Minimum Venting Open Factor {deltaJ/kg}
    TLB Occupation Schedule, !- Venting Availability Schedule Name
    ,                        !- Occupant Ventilation Control Name
    PolygonHeight,           !- Equivalent Rectangle Method
    1;                       !- Equivalent Rectangle Aspect Ratio {dimensionless}

AirflowNetwork:MultiZone:Surface,
    P5_W11,                  !- Surface Name
    Windows,                 !- Leakage Component Name
    ,                        !- External Node Name
    0.45,                    !- Window/Door Opening Factor, or Crack Factor {dimensionless}
    ZoneLevel,               !- Ventilation Control Mode
    VN_19,                   !- Ventilation Control Zone Temperature Setpoint Schedule Name
    0.45,                    !- Minimum Venting Open Factor {dimensionless}
    0,                       !- Indoor and Outdoor Temperature Difference Lower Limit For Maximum Venting Open Factor {deltaC}
    5,                       !- Indoor and Outdoor Temperature Difference Upper Limit for Minimum Venting Open Factor {deltaC}
    0,                       !- Indoor and Outdoor Enthalpy Difference Lower Limit For Maximum Venting Open Factor {deltaJ/kg}
    300000,                  !- Indoor and Outdoor Enthalpy Difference Upper Limit for Minimum Venting Open Factor {deltaJ/kg}
    TLB Occupation Schedule, !- Venting Availability Schedule Name
    ,                        !- Occupant Ventilation Control Name
    PolygonHeight,           !- Equivalent Rectangle Method
    1;                       !- Equivalent Rectangle Aspect Ratio {dimensionless}

AirflowNetwork:MultiZone:Surface,
    P5_W12,                  !- Surface Name
    Windows,                 !- Leakage Component Name
    ,                        !- External Node Name
    0.45,                    !- Window/Door Opening Factor, or Crack Factor {dimensionless}
    ZoneLevel,               !- Ventilation Control Mode
    VN_19,                   !- Ventilation Control Zone Temperature Setpoint Schedule Name
    0.45,                    !- Minimum Venting Open Factor {dimensionless}
    0,                       !- Indoor and Outdoor Temperature Difference Lower Limit For Maximum Venting Open Factor {deltaC}
    5,                       !- Indoor and Outdoor Temperature Difference Upper Limit for Minimum Venting Open Factor {deltaC}
    0,                       !- Indoor and Outdoor Enthalpy Difference Lower Limit For Maximum Venting Open Factor {deltaJ/kg}
    300000,                  !- Indoor and Outdoor Enthalpy Difference Upper Limit for Minimum Venting Open Factor {deltaJ/kg}
    TLB Occupation Schedule, !- Venting Availability Schedule Name
    ,                        !- Occupant Ventilation Control Name
    PolygonHeight,           !- Equivalent Rectangle Method
    1;                       !- Equivalent Rectangle Aspect Ratio {dimensionless}

AirflowNetwork:MultiZone:Surface,
    P5_W13,                  !- Surface Name
    Windows,                 !- Leakage Component Name
    ,                        !- External Node Name
    0.45,                    !- Window/Door Opening Factor, or Crack Factor {dimensionless}
    ZoneLevel,               !- Ventilation Control Mode
    VN_19,                   !- Ventilation Control Zone Temperature Setpoint Schedule Name
    0.45,                    !- Minimum Venting Open Factor {dimensionless}
    0,                       !- Indoor and Outdoor Temperature Difference Lower Limit For Maximum Venting Open Factor {deltaC}
    5,                       !- Indoor and Outdoor Temperature Difference Upper Limit for Minimum Venting Open Factor {deltaC}
    0,                       !- Indoor and Outdoor Enthalpy Difference Lower Limit For Maximum Venting Open Factor {deltaJ/kg}
    300000,                  !- Indoor and Outdoor Enthalpy Difference Upper Limit for Minimum Venting Open Factor {deltaJ/kg}
    TLB Occupation Schedule, !- Venting Availability Schedule Name
    ,                        !- Occupant Ventilation Control Name
    PolygonHeight,           !- Equivalent Rectangle Method
    1;                       !- Equivalent Rectangle Aspect Ratio {dimensionless}

AirflowNetwork:MultiZone:Surface,
    P5_W14 (WC),             !- Surface Name
    Windows,                 !- Leakage Component Name
    ,                        !- External Node Name
    0.45,                    !- Window/Door Opening Factor, or Crack Factor {dimensionless}
    ZoneLevel,               !- Ventilation Control Mode
    VN_19,                   !- Ventilation Control Zone Temperature Setpoint Schedule Name
    0.45,                    !- Minimum Venting Open Factor {dimensionless}
    0,                       !- Indoor and Outdoor Temperature Difference Lower Limit For Maximum Venting Open Factor {deltaC}
    5,                       !- Indoor and Outdoor Temperature Difference Upper Limit for Minimum Venting Open Factor {deltaC}
    0,                       !- Indoor and Outdoor Enthalpy Difference Lower Limit For Maximum Venting Open Factor {deltaJ/kg}
    300000,                  !- Indoor and Outdoor Enthalpy Difference Upper Limit for Minimum Venting Open Factor {deltaJ/kg}
    TLB Occupation Schedule, !- Venting Availability Schedule Name
    ,                        !- Occupant Ventilation Control Name
    PolygonHeight,           !- Equivalent Rectangle Method
    1;                       !- Equivalent Rectangle Aspect Ratio {dimensionless}

AirflowNetwork:MultiZone:Surface,
    P5_W15 (Kitchen),        !- Surface Name
    Windows,                 !- Leakage Component Name
    ,                        !- External Node Name
    0.45,                    !- Window/Door Opening Factor, or Crack Factor {dimensionless}
    ZoneLevel,               !- Ventilation Control Mode
    VN_19,                   !- Ventilation Control Zone Temperature Setpoint Schedule Name
    0.45,                    !- Minimum Venting Open Factor {dimensionless}
    0,                       !- Indoor and Outdoor Temperature Difference Lower Limit For Maximum Venting Open Factor {deltaC}
    5,                       !- Indoor and Outdoor Temperature Difference Upper Limit for Minimum Venting Open Factor {deltaC}
    0,                       !- Indoor and Outdoor Enthalpy Difference Lower Limit For Maximum Venting Open Factor {deltaJ/kg}
    300000,                  !- Indoor and Outdoor Enthalpy Difference Upper Limit for Minimum Venting Open Factor {deltaJ/kg}
    TLB Occupation Schedule, !- Venting Availability Schedule Name
    ,                        !- Occupant Ventilation Control Name
    PolygonHeight,           !- Equivalent Rectangle Method
    1;                       !- Equivalent Rectangle Aspect Ratio {dimensionless}

AirflowNetwork:MultiZone:Surface,
    P5_W16,                  !- Surface Name
    Windows,                 !- Leakage Component Name
    ,                        !- External Node Name
    0.45,                    !- Window/Door Opening Factor, or Crack Factor {dimensionless}
    ZoneLevel,               !- Ventilation Control Mode
    VN_19,                   !- Ventilation Control Zone Temperature Setpoint Schedule Name
    0.45,                    !- Minimum Venting Open Factor {dimensionless}
    0,                       !- Indoor and Outdoor Temperature Difference Lower Limit For Maximum Venting Open Factor {deltaC}
    5,                       !- Indoor and Outdoor Temperature Difference Upper Limit for Minimum Venting Open Factor {deltaC}
    0,                       !- Indoor and Outdoor Enthalpy Difference Lower Limit For Maximum Venting Open Factor {deltaJ/kg}
    300000,                  !- Indoor and Outdoor Enthalpy Difference Upper Limit for Minimum Venting Open Factor {deltaJ/kg}
    TLB Occupation Schedule, !- Venting Availability Schedule Name
    ,                        !- Occupant Ventilation Control Name
    PolygonHeight,           !- Equivalent Rectangle Method
    1;                       !- Equivalent Rectangle Aspect Ratio {dimensionless}

AirflowNetwork:MultiZone:Surface,
    P5_W17,                  !- Surface Name
    Windows,                 !- Leakage Component Name
    ,                        !- External Node Name
    0.45,                    !- Window/Door Opening Factor, or Crack Factor {dimensionless}
    ZoneLevel,               !- Ventilation Control Mode
    VN_19,                   !- Ventilation Control Zone Temperature Setpoint Schedule Name
    0.45,                    !- Minimum Venting Open Factor {dimensionless}
    0,                       !- Indoor and Outdoor Temperature Difference Lower Limit For Maximum Venting Open Factor {deltaC}
    5,                       !- Indoor and Outdoor Temperature Difference Upper Limit for Minimum Venting Open Factor {deltaC}
    0,                       !- Indoor and Outdoor Enthalpy Difference Lower Limit For Maximum Venting Open Factor {deltaJ/kg}
    300000,                  !- Indoor and Outdoor Enthalpy Difference Upper Limit for Minimum Venting Open Factor {deltaJ/kg}
    TLB Occupation Schedule, !- Venting Availability Schedule Name
    ,                        !- Occupant Ventilation Control Name
    PolygonHeight,           !- Equivalent Rectangle Method
    1;                       !- Equivalent Rectangle Aspect Ratio {dimensionless}

AirflowNetwork:MultiZone:Surface,
    P5_W18 (Kitchen),        !- Surface Name
    Windows,                 !- Leakage Component Name
    ,                        !- External Node Name
    0.45,                    !- Window/Door Opening Factor, or Crack Factor {dimensionless}
    ZoneLevel,               !- Ventilation Control Mode
    VN_19,                   !- Ventilation Control Zone Temperature Setpoint Schedule Name
    0.45,                    !- Minimum Venting Open Factor {dimensionless}
    0,                       !- Indoor and Outdoor Temperature Difference Lower Limit For Maximum Venting Open Factor {deltaC}
    5,                       !- Indoor and Outdoor Temperature Difference Upper Limit for Minimum Venting Open Factor {deltaC}
    0,                       !- Indoor and Outdoor Enthalpy Difference Lower Limit For Maximum Venting Open Factor {deltaJ/kg}
    300000,                  !- Indoor and Outdoor Enthalpy Difference Upper Limit for Minimum Venting Open Factor {deltaJ/kg}
    TLB Occupation Schedule, !- Venting Availability Schedule Name
    ,                        !- Occupant Ventilation Control Name
    PolygonHeight,           !- Equivalent Rectangle Method
    1;                       !- Equivalent Rectangle Aspect Ratio {dimensionless}

AirflowNetwork:MultiZone:Surface,
    P5_W19 (WC),             !- Surface Name
    Windows,                 !- Leakage Component Name
    ,                        !- External Node Name
    0.45,                    !- Window/Door Opening Factor, or Crack Factor {dimensionless}
    ZoneLevel,               !- Ventilation Control Mode
    VN_19,                   !- Ventilation Control Zone Temperature Setpoint Schedule Name
    0.45,                    !- Minimum Venting Open Factor {dimensionless}
    0,                       !- Indoor and Outdoor Temperature Difference Lower Limit For Maximum Venting Open Factor {deltaC}
    5,                       !- Indoor and Outdoor Temperature Difference Upper Limit for Minimum Venting Open Factor {deltaC}
    0,                       !- Indoor and Outdoor Enthalpy Difference Lower Limit For Maximum Venting Open Factor {deltaJ/kg}
    300000,                  !- Indoor and Outdoor Enthalpy Difference Upper Limit for Minimum Venting Open Factor {deltaJ/kg}
    TLB Occupation Schedule, !- Venting Availability Schedule Name
    ,                        !- Occupant Ventilation Control Name
    PolygonHeight,           !- Equivalent Rectangle Method
    1;                       !- Equivalent Rectangle Aspect Ratio {dimensionless}

AirflowNetwork:MultiZone:Surface,
    P5_W20,                  !- Surface Name
    Windows,                 !- Leakage Component Name
    ,                        !- External Node Name
    0.45,                    !- Window/Door Opening Factor, or Crack Factor {dimensionless}
    ZoneLevel,               !- Ventilation Control Mode
    VN_19,                   !- Ventilation Control Zone Temperature Setpoint Schedule Name
    0.45,                    !- Minimum Venting Open Factor {dimensionless}
    0,                       !- Indoor and Outdoor Temperature Difference Lower Limit For Maximum Venting Open Factor {deltaC}
    5,                       !- Indoor and Outdoor Temperature Difference Upper Limit for Minimum Venting Open Factor {deltaC}
    0,                       !- Indoor and Outdoor Enthalpy Difference Lower Limit For Maximum Venting Open Factor {deltaJ/kg}
    300000,                  !- Indoor and Outdoor Enthalpy Difference Upper Limit for Minimum Venting Open Factor {deltaJ/kg}
    TLB Occupation Schedule, !- Venting Availability Schedule Name
    ,                        !- Occupant Ventilation Control Name
    PolygonHeight,           !- Equivalent Rectangle Method
    1;                       !- Equivalent Rectangle Aspect Ratio {dimensionless}


!-   ===========  ALL OBJECTS IN CLASS: AIRFLOWNETWORK:MULTIZONE:COMPONENT:DETAILEDOPENING ===========

AirflowNetwork:MultiZone:Component:DetailedOpening,
    Doors,                   !- Name
    0.0024,                  !- Air Mass Flow Coefficient When Opening is Closed {kg/s-m}
    0.59,                    !- Air Mass Flow Exponent When Opening is Closed {dimensionless}
    NonPivoted,              !- Type of Rectangular Large Vertical Opening (LVO)
    0,                       !- Extra Crack Length or Height of Pivoting Axis {m}
    2,                       !- Number of Sets of Opening Factor Data
    0,                       !- Opening Factor 1 {dimensionless}
    0.001,                   !- Discharge Coefficient for Opening Factor 1 {dimensionless}
    0,                       !- Width Factor for Opening Factor 1 {dimensionless}
    1,                       !- Height Factor for Opening Factor 1 {dimensionless}
    0,                       !- Start Height Factor for Opening Factor 1 {dimensionless}
    0.6,                     !- Opening Factor 2 {dimensionless}
    1,                       !- Discharge Coefficient for Opening Factor 2 {dimensionless}
    1,                       !- Width Factor for Opening Factor 2 {dimensionless}
    1,                       !- Height Factor for Opening Factor 2 {dimensionless}
    0;                       !- Start Height Factor for Opening Factor 2 {dimensionless}

AirflowNetwork:MultiZone:Component:DetailedOpening,
    Windows,                 !- Name
    0.00063,                 !- Air Mass Flow Coefficient When Opening is Closed {kg/s-m}
    0.65,                    !- Air Mass Flow Exponent When Opening is Closed {dimensionless}
    NonPivoted,              !- Type of Rectangular Large Vertical Opening (LVO)
    0.3,                     !- Extra Crack Length or Height of Pivoting Axis {m}
    2,                       !- Number of Sets of Opening Factor Data
    0,                       !- Opening Factor 1 {dimensionless}
    0.001,                   !- Discharge Coefficient for Opening Factor 1 {dimensionless}
    0,                       !- Width Factor for Opening Factor 1 {dimensionless}
    1,                       !- Height Factor for Opening Factor 1 {dimensionless}
    0,                       !- Start Height Factor for Opening Factor 1 {dimensionless}
    0.6,                     !- Opening Factor 2 {dimensionless}
    0.9,                     !- Discharge Coefficient for Opening Factor 2 {dimensionless}
    1,                       !- Width Factor for Opening Factor 2 {dimensionless}
    1,                       !- Height Factor for Opening Factor 2 {dimensionless}
    0;                       !- Start Height Factor for Opening Factor 2 {dimensionless}


!-   ===========  ALL OBJECTS IN CLASS: HVACTEMPLATE:THERMOSTAT ===========

HVACTemplate:Thermostat,
    Thermostat,              !- Name
    ,                        !- Heating Setpoint Schedule Name
    21,                      !- Constant Heating Setpoint {C}
    ,                        !- Cooling Setpoint Schedule Name
    23;                      !- Constant Cooling Setpoint {C}


!-   ===========  ALL OBJECTS IN CLASS: HVACTEMPLATE:ZONE:IDEALLOADSAIRSYSTEM ===========

HVACTemplate:Zone:IdealLoadsAirSystem,
    APTO01_P1,               !- Zone Name
    Thermostat,              !- Template Thermostat Name
    TLB Occupation Schedule, !- System Availability Schedule Name
    30,                      !- Maximum Heating Supply Air Temperature {C}
    13,                      !- Minimum Cooling Supply Air Temperature {C}
    0.0156,                  !- Maximum Heating Supply Air Humidity Ratio {kgWater/kgDryAir}
    0.0077,                  !- Minimum Cooling Supply Air Humidity Ratio {kgWater/kgDryAir}
    NoLimit,                 !- Heating Limit
    ,                        !- Maximum Heating Air Flow Rate {m3/s}
    ,                        !- Maximum Sensible Heating Capacity {W}
    NoLimit,                 !- Cooling Limit
    ,                        !- Maximum Cooling Air Flow Rate {m3/s}
    ,                        !- Maximum Total Cooling Capacity {W}
    ,                        !- Heating Availability Schedule Name
    ,                        !- Cooling Availability Schedule Name
    ConstantSensibleHeatRatio,  !- Dehumidification Control Type
    0.7,                     !- Cooling Sensible Heat Ratio {dimensionless}
    60,                      !- Dehumidification Setpoint {percent}
    None,                    !- Humidification Control Type
    30,                      !- Humidification Setpoint {percent}
    None,                    !- Outdoor Air Method
    0.00944,                 !- Outdoor Air Flow Rate per Person {m3/s}
    ,                        !- Outdoor Air Flow Rate per Zone Floor Area {m3/s-m2}
    ,                        !- Outdoor Air Flow Rate per Zone {m3/s}
    ,                        !- Design Specification Outdoor Air Object Name
    None,                    !- Demand Controlled Ventilation Type
    NoEconomizer,            !- Outdoor Air Economizer Type
    None,                    !- Heat Recovery Type
    0.7,                     !- Sensible Heat Recovery Effectiveness {dimensionless}
    0.65;                    !- Latent Heat Recovery Effectiveness {dimensionless}

HVACTemplate:Zone:IdealLoadsAirSystem,
    APTO01_P2,               !- Zone Name
    Thermostat,              !- Template Thermostat Name
    TLB Occupation Schedule, !- System Availability Schedule Name
    30,                      !- Maximum Heating Supply Air Temperature {C}
    13,                      !- Minimum Cooling Supply Air Temperature {C}
    0.0156,                  !- Maximum Heating Supply Air Humidity Ratio {kgWater/kgDryAir}
    0.0077,                  !- Minimum Cooling Supply Air Humidity Ratio {kgWater/kgDryAir}
    NoLimit,                 !- Heating Limit
    ,                        !- Maximum Heating Air Flow Rate {m3/s}
    ,                        !- Maximum Sensible Heating Capacity {W}
    NoLimit,                 !- Cooling Limit
    ,                        !- Maximum Cooling Air Flow Rate {m3/s}
    ,                        !- Maximum Total Cooling Capacity {W}
    ,                        !- Heating Availability Schedule Name
    ,                        !- Cooling Availability Schedule Name
    ConstantSensibleHeatRatio,  !- Dehumidification Control Type
    0.7,                     !- Cooling Sensible Heat Ratio {dimensionless}
    60,                      !- Dehumidification Setpoint {percent}
    None,                    !- Humidification Control Type
    30,                      !- Humidification Setpoint {percent}
    None,                    !- Outdoor Air Method
    0.00944,                 !- Outdoor Air Flow Rate per Person {m3/s}
    ,                        !- Outdoor Air Flow Rate per Zone Floor Area {m3/s-m2}
    ,                        !- Outdoor Air Flow Rate per Zone {m3/s}
    ,                        !- Design Specification Outdoor Air Object Name
    None,                    !- Demand Controlled Ventilation Type
    NoEconomizer,            !- Outdoor Air Economizer Type
    None,                    !- Heat Recovery Type
    0.7,                     !- Sensible Heat Recovery Effectiveness {dimensionless}
    0.65;                    !- Latent Heat Recovery Effectiveness {dimensionless}

HVACTemplate:Zone:IdealLoadsAirSystem,
    APTO01_P3,               !- Zone Name
    Thermostat,              !- Template Thermostat Name
    TLB Occupation Schedule, !- System Availability Schedule Name
    30,                      !- Maximum Heating Supply Air Temperature {C}
    13,                      !- Minimum Cooling Supply Air Temperature {C}
    0.0156,                  !- Maximum Heating Supply Air Humidity Ratio {kgWater/kgDryAir}
    0.0077,                  !- Minimum Cooling Supply Air Humidity Ratio {kgWater/kgDryAir}
    NoLimit,                 !- Heating Limit
    ,                        !- Maximum Heating Air Flow Rate {m3/s}
    ,                        !- Maximum Sensible Heating Capacity {W}
    NoLimit,                 !- Cooling Limit
    ,                        !- Maximum Cooling Air Flow Rate {m3/s}
    ,                        !- Maximum Total Cooling Capacity {W}
    ,                        !- Heating Availability Schedule Name
    ,                        !- Cooling Availability Schedule Name
    ConstantSensibleHeatRatio,  !- Dehumidification Control Type
    0.7,                     !- Cooling Sensible Heat Ratio {dimensionless}
    60,                      !- Dehumidification Setpoint {percent}
    None,                    !- Humidification Control Type
    30,                      !- Humidification Setpoint {percent}
    None,                    !- Outdoor Air Method
    0.00944,                 !- Outdoor Air Flow Rate per Person {m3/s}
    ,                        !- Outdoor Air Flow Rate per Zone Floor Area {m3/s-m2}
    ,                        !- Outdoor Air Flow Rate per Zone {m3/s}
    ,                        !- Design Specification Outdoor Air Object Name
    None,                    !- Demand Controlled Ventilation Type
    NoEconomizer,            !- Outdoor Air Economizer Type
    None,                    !- Heat Recovery Type
    0.7,                     !- Sensible Heat Recovery Effectiveness {dimensionless}
    0.65;                    !- Latent Heat Recovery Effectiveness {dimensionless}

HVACTemplate:Zone:IdealLoadsAirSystem,
    APTO01_P4,               !- Zone Name
    Thermostat,              !- Template Thermostat Name
    TLB Occupation Schedule, !- System Availability Schedule Name
    30,                      !- Maximum Heating Supply Air Temperature {C}
    13,                      !- Minimum Cooling Supply Air Temperature {C}
    0.0156,                  !- Maximum Heating Supply Air Humidity Ratio {kgWater/kgDryAir}
    0.0077,                  !- Minimum Cooling Supply Air Humidity Ratio {kgWater/kgDryAir}
    NoLimit,                 !- Heating Limit
    ,                        !- Maximum Heating Air Flow Rate {m3/s}
    ,                        !- Maximum Sensible Heating Capacity {W}
    NoLimit,                 !- Cooling Limit
    ,                        !- Maximum Cooling Air Flow Rate {m3/s}
    ,                        !- Maximum Total Cooling Capacity {W}
    ,                        !- Heating Availability Schedule Name
    ,                        !- Cooling Availability Schedule Name
    ConstantSensibleHeatRatio,  !- Dehumidification Control Type
    0.7,                     !- Cooling Sensible Heat Ratio {dimensionless}
    60,                      !- Dehumidification Setpoint {percent}
    None,                    !- Humidification Control Type
    30,                      !- Humidification Setpoint {percent}
    None,                    !- Outdoor Air Method
    0.00944,                 !- Outdoor Air Flow Rate per Person {m3/s}
    ,                        !- Outdoor Air Flow Rate per Zone Floor Area {m3/s-m2}
    ,                        !- Outdoor Air Flow Rate per Zone {m3/s}
    ,                        !- Design Specification Outdoor Air Object Name
    None,                    !- Demand Controlled Ventilation Type
    NoEconomizer,            !- Outdoor Air Economizer Type
    None,                    !- Heat Recovery Type
    0.7,                     !- Sensible Heat Recovery Effectiveness {dimensionless}
    0.65;                    !- Latent Heat Recovery Effectiveness {dimensionless}

HVACTemplate:Zone:IdealLoadsAirSystem,
    APTO01_P5,               !- Zone Name
    Thermostat,              !- Template Thermostat Name
    TLB Occupation Schedule, !- System Availability Schedule Name
    30,                      !- Maximum Heating Supply Air Temperature {C}
    13,                      !- Minimum Cooling Supply Air Temperature {C}
    0.0156,                  !- Maximum Heating Supply Air Humidity Ratio {kgWater/kgDryAir}
    0.0077,                  !- Minimum Cooling Supply Air Humidity Ratio {kgWater/kgDryAir}
    NoLimit,                 !- Heating Limit
    ,                        !- Maximum Heating Air Flow Rate {m3/s}
    ,                        !- Maximum Sensible Heating Capacity {W}
    NoLimit,                 !- Cooling Limit
    ,                        !- Maximum Cooling Air Flow Rate {m3/s}
    ,                        !- Maximum Total Cooling Capacity {W}
    ,                        !- Heating Availability Schedule Name
    ,                        !- Cooling Availability Schedule Name
    ConstantSensibleHeatRatio,  !- Dehumidification Control Type
    0.7,                     !- Cooling Sensible Heat Ratio {dimensionless}
    60,                      !- Dehumidification Setpoint {percent}
    None,                    !- Humidification Control Type
    30,                      !- Humidification Setpoint {percent}
    None,                    !- Outdoor Air Method
    0.00944,                 !- Outdoor Air Flow Rate per Person {m3/s}
    ,                        !- Outdoor Air Flow Rate per Zone Floor Area {m3/s-m2}
    ,                        !- Outdoor Air Flow Rate per Zone {m3/s}
    ,                        !- Design Specification Outdoor Air Object Name
    None,                    !- Demand Controlled Ventilation Type
    NoEconomizer,            !- Outdoor Air Economizer Type
    None,                    !- Heat Recovery Type
    0.7,                     !- Sensible Heat Recovery Effectiveness {dimensionless}
    0.65;                    !- Latent Heat Recovery Effectiveness {dimensionless}

HVACTemplate:Zone:IdealLoadsAirSystem,
    APTO02_P1,               !- Zone Name
    Thermostat,              !- Template Thermostat Name
    TLB Occupation Schedule, !- System Availability Schedule Name
    30,                      !- Maximum Heating Supply Air Temperature {C}
    13,                      !- Minimum Cooling Supply Air Temperature {C}
    0.0156,                  !- Maximum Heating Supply Air Humidity Ratio {kgWater/kgDryAir}
    0.0077,                  !- Minimum Cooling Supply Air Humidity Ratio {kgWater/kgDryAir}
    NoLimit,                 !- Heating Limit
    ,                        !- Maximum Heating Air Flow Rate {m3/s}
    ,                        !- Maximum Sensible Heating Capacity {W}
    NoLimit,                 !- Cooling Limit
    ,                        !- Maximum Cooling Air Flow Rate {m3/s}
    ,                        !- Maximum Total Cooling Capacity {W}
    ,                        !- Heating Availability Schedule Name
    ,                        !- Cooling Availability Schedule Name
    ConstantSensibleHeatRatio,  !- Dehumidification Control Type
    0.7,                     !- Cooling Sensible Heat Ratio {dimensionless}
    60,                      !- Dehumidification Setpoint {percent}
    None,                    !- Humidification Control Type
    30,                      !- Humidification Setpoint {percent}
    None,                    !- Outdoor Air Method
    0.00944,                 !- Outdoor Air Flow Rate per Person {m3/s}
    ,                        !- Outdoor Air Flow Rate per Zone Floor Area {m3/s-m2}
    ,                        !- Outdoor Air Flow Rate per Zone {m3/s}
    ,                        !- Design Specification Outdoor Air Object Name
    None,                    !- Demand Controlled Ventilation Type
    NoEconomizer,            !- Outdoor Air Economizer Type
    None,                    !- Heat Recovery Type
    0.7,                     !- Sensible Heat Recovery Effectiveness {dimensionless}
    0.65;                    !- Latent Heat Recovery Effectiveness {dimensionless}

HVACTemplate:Zone:IdealLoadsAirSystem,
    APTO02_P2,               !- Zone Name
    Thermostat,              !- Template Thermostat Name
    TLB Occupation Schedule, !- System Availability Schedule Name
    30,                      !- Maximum Heating Supply Air Temperature {C}
    13,                      !- Minimum Cooling Supply Air Temperature {C}
    0.0156,                  !- Maximum Heating Supply Air Humidity Ratio {kgWater/kgDryAir}
    0.0077,                  !- Minimum Cooling Supply Air Humidity Ratio {kgWater/kgDryAir}
    NoLimit,                 !- Heating Limit
    ,                        !- Maximum Heating Air Flow Rate {m3/s}
    ,                        !- Maximum Sensible Heating Capacity {W}
    NoLimit,                 !- Cooling Limit
    ,                        !- Maximum Cooling Air Flow Rate {m3/s}
    ,                        !- Maximum Total Cooling Capacity {W}
    ,                        !- Heating Availability Schedule Name
    ,                        !- Cooling Availability Schedule Name
    ConstantSensibleHeatRatio,  !- Dehumidification Control Type
    0.7,                     !- Cooling Sensible Heat Ratio {dimensionless}
    60,                      !- Dehumidification Setpoint {percent}
    None,                    !- Humidification Control Type
    30,                      !- Humidification Setpoint {percent}
    None,                    !- Outdoor Air Method
    0.00944,                 !- Outdoor Air Flow Rate per Person {m3/s}
    ,                        !- Outdoor Air Flow Rate per Zone Floor Area {m3/s-m2}
    ,                        !- Outdoor Air Flow Rate per Zone {m3/s}
    ,                        !- Design Specification Outdoor Air Object Name
    None,                    !- Demand Controlled Ventilation Type
    NoEconomizer,            !- Outdoor Air Economizer Type
    None,                    !- Heat Recovery Type
    0.7,                     !- Sensible Heat Recovery Effectiveness {dimensionless}
    0.65;                    !- Latent Heat Recovery Effectiveness {dimensionless}

HVACTemplate:Zone:IdealLoadsAirSystem,
    APTO02_P3,               !- Zone Name
    Thermostat,              !- Template Thermostat Name
    TLB Occupation Schedule, !- System Availability Schedule Name
    30,                      !- Maximum Heating Supply Air Temperature {C}
    13,                      !- Minimum Cooling Supply Air Temperature {C}
    0.0156,                  !- Maximum Heating Supply Air Humidity Ratio {kgWater/kgDryAir}
    0.0077,                  !- Minimum Cooling Supply Air Humidity Ratio {kgWater/kgDryAir}
    NoLimit,                 !- Heating Limit
    ,                        !- Maximum Heating Air Flow Rate {m3/s}
    ,                        !- Maximum Sensible Heating Capacity {W}
    NoLimit,                 !- Cooling Limit
    ,                        !- Maximum Cooling Air Flow Rate {m3/s}
    ,                        !- Maximum Total Cooling Capacity {W}
    ,                        !- Heating Availability Schedule Name
    ,                        !- Cooling Availability Schedule Name
    ConstantSensibleHeatRatio,  !- Dehumidification Control Type
    0.7,                     !- Cooling Sensible Heat Ratio {dimensionless}
    60,                      !- Dehumidification Setpoint {percent}
    None,                    !- Humidification Control Type
    30,                      !- Humidification Setpoint {percent}
    None,                    !- Outdoor Air Method
    0.00944,                 !- Outdoor Air Flow Rate per Person {m3/s}
    ,                        !- Outdoor Air Flow Rate per Zone Floor Area {m3/s-m2}
    ,                        !- Outdoor Air Flow Rate per Zone {m3/s}
    ,                        !- Design Specification Outdoor Air Object Name
    None,                    !- Demand Controlled Ventilation Type
    NoEconomizer,            !- Outdoor Air Economizer Type
    None,                    !- Heat Recovery Type
    0.7,                     !- Sensible Heat Recovery Effectiveness {dimensionless}
    0.65;                    !- Latent Heat Recovery Effectiveness {dimensionless}

HVACTemplate:Zone:IdealLoadsAirSystem,
    APTO02_P4,               !- Zone Name
    Thermostat,              !- Template Thermostat Name
    TLB Occupation Schedule, !- System Availability Schedule Name
    30,                      !- Maximum Heating Supply Air Temperature {C}
    13,                      !- Minimum Cooling Supply Air Temperature {C}
    0.0156,                  !- Maximum Heating Supply Air Humidity Ratio {kgWater/kgDryAir}
    0.0077,                  !- Minimum Cooling Supply Air Humidity Ratio {kgWater/kgDryAir}
    NoLimit,                 !- Heating Limit
    ,                        !- Maximum Heating Air Flow Rate {m3/s}
    ,                        !- Maximum Sensible Heating Capacity {W}
    NoLimit,                 !- Cooling Limit
    ,                        !- Maximum Cooling Air Flow Rate {m3/s}
    ,                        !- Maximum Total Cooling Capacity {W}
    ,                        !- Heating Availability Schedule Name
    ,                        !- Cooling Availability Schedule Name
    ConstantSensibleHeatRatio,  !- Dehumidification Control Type
    0.7,                     !- Cooling Sensible Heat Ratio {dimensionless}
    60,                      !- Dehumidification Setpoint {percent}
    None,                    !- Humidification Control Type
    30,                      !- Humidification Setpoint {percent}
    None,                    !- Outdoor Air Method
    0.00944,                 !- Outdoor Air Flow Rate per Person {m3/s}
    ,                        !- Outdoor Air Flow Rate per Zone Floor Area {m3/s-m2}
    ,                        !- Outdoor Air Flow Rate per Zone {m3/s}
    ,                        !- Design Specification Outdoor Air Object Name
    None,                    !- Demand Controlled Ventilation Type
    NoEconomizer,            !- Outdoor Air Economizer Type
    None,                    !- Heat Recovery Type
    0.7,                     !- Sensible Heat Recovery Effectiveness {dimensionless}
    0.65;                    !- Latent Heat Recovery Effectiveness {dimensionless}

HVACTemplate:Zone:IdealLoadsAirSystem,
    APTO02_P5,               !- Zone Name
    Thermostat,              !- Template Thermostat Name
    TLB Occupation Schedule, !- System Availability Schedule Name
    30,                      !- Maximum Heating Supply Air Temperature {C}
    13,                      !- Minimum Cooling Supply Air Temperature {C}
    0.0156,                  !- Maximum Heating Supply Air Humidity Ratio {kgWater/kgDryAir}
    0.0077,                  !- Minimum Cooling Supply Air Humidity Ratio {kgWater/kgDryAir}
    NoLimit,                 !- Heating Limit
    ,                        !- Maximum Heating Air Flow Rate {m3/s}
    ,                        !- Maximum Sensible Heating Capacity {W}
    NoLimit,                 !- Cooling Limit
    ,                        !- Maximum Cooling Air Flow Rate {m3/s}
    ,                        !- Maximum Total Cooling Capacity {W}
    ,                        !- Heating Availability Schedule Name
    ,                        !- Cooling Availability Schedule Name
    ConstantSensibleHeatRatio,  !- Dehumidification Control Type
    0.7,                     !- Cooling Sensible Heat Ratio {dimensionless}
    60,                      !- Dehumidification Setpoint {percent}
    None,                    !- Humidification Control Type
    30,                      !- Humidification Setpoint {percent}
    None,                    !- Outdoor Air Method
    0.00944,                 !- Outdoor Air Flow Rate per Person {m3/s}
    ,                        !- Outdoor Air Flow Rate per Zone Floor Area {m3/s-m2}
    ,                        !- Outdoor Air Flow Rate per Zone {m3/s}
    ,                        !- Design Specification Outdoor Air Object Name
    None,                    !- Demand Controlled Ventilation Type
    NoEconomizer,            !- Outdoor Air Economizer Type
    None,                    !- Heat Recovery Type
    0.7,                     !- Sensible Heat Recovery Effectiveness {dimensionless}
    0.65;                    !- Latent Heat Recovery Effectiveness {dimensionless}

HVACTemplate:Zone:IdealLoadsAirSystem,
    APTO03_P1,               !- Zone Name
    Thermostat,              !- Template Thermostat Name
    TLB Occupation Schedule, !- System Availability Schedule Name
    30,                      !- Maximum Heating Supply Air Temperature {C}
    13,                      !- Minimum Cooling Supply Air Temperature {C}
    0.0156,                  !- Maximum Heating Supply Air Humidity Ratio {kgWater/kgDryAir}
    0.0077,                  !- Minimum Cooling Supply Air Humidity Ratio {kgWater/kgDryAir}
    NoLimit,                 !- Heating Limit
    ,                        !- Maximum Heating Air Flow Rate {m3/s}
    ,                        !- Maximum Sensible Heating Capacity {W}
    NoLimit,                 !- Cooling Limit
    ,                        !- Maximum Cooling Air Flow Rate {m3/s}
    ,                        !- Maximum Total Cooling Capacity {W}
    ,                        !- Heating Availability Schedule Name
    ,                        !- Cooling Availability Schedule Name
    ConstantSensibleHeatRatio,  !- Dehumidification Control Type
    0.7,                     !- Cooling Sensible Heat Ratio {dimensionless}
    60,                      !- Dehumidification Setpoint {percent}
    None,                    !- Humidification Control Type
    30,                      !- Humidification Setpoint {percent}
    None,                    !- Outdoor Air Method
    0.00944,                 !- Outdoor Air Flow Rate per Person {m3/s}
    ,                        !- Outdoor Air Flow Rate per Zone Floor Area {m3/s-m2}
    ,                        !- Outdoor Air Flow Rate per Zone {m3/s}
    ,                        !- Design Specification Outdoor Air Object Name
    None,                    !- Demand Controlled Ventilation Type
    NoEconomizer,            !- Outdoor Air Economizer Type
    None,                    !- Heat Recovery Type
    0.7,                     !- Sensible Heat Recovery Effectiveness {dimensionless}
    0.65;                    !- Latent Heat Recovery Effectiveness {dimensionless}

HVACTemplate:Zone:IdealLoadsAirSystem,
    APTO03_P2,               !- Zone Name
    Thermostat,              !- Template Thermostat Name
    TLB Occupation Schedule, !- System Availability Schedule Name
    30,                      !- Maximum Heating Supply Air Temperature {C}
    13,                      !- Minimum Cooling Supply Air Temperature {C}
    0.0156,                  !- Maximum Heating Supply Air Humidity Ratio {kgWater/kgDryAir}
    0.0077,                  !- Minimum Cooling Supply Air Humidity Ratio {kgWater/kgDryAir}
    NoLimit,                 !- Heating Limit
    ,                        !- Maximum Heating Air Flow Rate {m3/s}
    ,                        !- Maximum Sensible Heating Capacity {W}
    NoLimit,                 !- Cooling Limit
    ,                        !- Maximum Cooling Air Flow Rate {m3/s}
    ,                        !- Maximum Total Cooling Capacity {W}
    ,                        !- Heating Availability Schedule Name
    ,                        !- Cooling Availability Schedule Name
    ConstantSensibleHeatRatio,  !- Dehumidification Control Type
    0.7,                     !- Cooling Sensible Heat Ratio {dimensionless}
    60,                      !- Dehumidification Setpoint {percent}
    None,                    !- Humidification Control Type
    30,                      !- Humidification Setpoint {percent}
    None,                    !- Outdoor Air Method
    0.00944,                 !- Outdoor Air Flow Rate per Person {m3/s}
    ,                        !- Outdoor Air Flow Rate per Zone Floor Area {m3/s-m2}
    ,                        !- Outdoor Air Flow Rate per Zone {m3/s}
    ,                        !- Design Specification Outdoor Air Object Name
    None,                    !- Demand Controlled Ventilation Type
    NoEconomizer,            !- Outdoor Air Economizer Type
    None,                    !- Heat Recovery Type
    0.7,                     !- Sensible Heat Recovery Effectiveness {dimensionless}
    0.65;                    !- Latent Heat Recovery Effectiveness {dimensionless}

HVACTemplate:Zone:IdealLoadsAirSystem,
    APTO03_P3,               !- Zone Name
    Thermostat,              !- Template Thermostat Name
    TLB Occupation Schedule, !- System Availability Schedule Name
    30,                      !- Maximum Heating Supply Air Temperature {C}
    13,                      !- Minimum Cooling Supply Air Temperature {C}
    0.0156,                  !- Maximum Heating Supply Air Humidity Ratio {kgWater/kgDryAir}
    0.0077,                  !- Minimum Cooling Supply Air Humidity Ratio {kgWater/kgDryAir}
    NoLimit,                 !- Heating Limit
    ,                        !- Maximum Heating Air Flow Rate {m3/s}
    ,                        !- Maximum Sensible Heating Capacity {W}
    NoLimit,                 !- Cooling Limit
    ,                        !- Maximum Cooling Air Flow Rate {m3/s}
    ,                        !- Maximum Total Cooling Capacity {W}
    ,                        !- Heating Availability Schedule Name
    ,                        !- Cooling Availability Schedule Name
    ConstantSensibleHeatRatio,  !- Dehumidification Control Type
    0.7,                     !- Cooling Sensible Heat Ratio {dimensionless}
    60,                      !- Dehumidification Setpoint {percent}
    None,                    !- Humidification Control Type
    30,                      !- Humidification Setpoint {percent}
    None,                    !- Outdoor Air Method
    0.00944,                 !- Outdoor Air Flow Rate per Person {m3/s}
    ,                        !- Outdoor Air Flow Rate per Zone Floor Area {m3/s-m2}
    ,                        !- Outdoor Air Flow Rate per Zone {m3/s}
    ,                        !- Design Specification Outdoor Air Object Name
    None,                    !- Demand Controlled Ventilation Type
    NoEconomizer,            !- Outdoor Air Economizer Type
    None,                    !- Heat Recovery Type
    0.7,                     !- Sensible Heat Recovery Effectiveness {dimensionless}
    0.65;                    !- Latent Heat Recovery Effectiveness {dimensionless}

HVACTemplate:Zone:IdealLoadsAirSystem,
    APTO03_P4,               !- Zone Name
    Thermostat,              !- Template Thermostat Name
    TLB Occupation Schedule, !- System Availability Schedule Name
    30,                      !- Maximum Heating Supply Air Temperature {C}
    13,                      !- Minimum Cooling Supply Air Temperature {C}
    0.0156,                  !- Maximum Heating Supply Air Humidity Ratio {kgWater/kgDryAir}
    0.0077,                  !- Minimum Cooling Supply Air Humidity Ratio {kgWater/kgDryAir}
    NoLimit,                 !- Heating Limit
    ,                        !- Maximum Heating Air Flow Rate {m3/s}
    ,                        !- Maximum Sensible Heating Capacity {W}
    NoLimit,                 !- Cooling Limit
    ,                        !- Maximum Cooling Air Flow Rate {m3/s}
    ,                        !- Maximum Total Cooling Capacity {W}
    ,                        !- Heating Availability Schedule Name
    ,                        !- Cooling Availability Schedule Name
    ConstantSensibleHeatRatio,  !- Dehumidification Control Type
    0.7,                     !- Cooling Sensible Heat Ratio {dimensionless}
    60,                      !- Dehumidification Setpoint {percent}
    None,                    !- Humidification Control Type
    30,                      !- Humidification Setpoint {percent}
    None,                    !- Outdoor Air Method
    0.00944,                 !- Outdoor Air Flow Rate per Person {m3/s}
    ,                        !- Outdoor Air Flow Rate per Zone Floor Area {m3/s-m2}
    ,                        !- Outdoor Air Flow Rate per Zone {m3/s}
    ,                        !- Design Specification Outdoor Air Object Name
    None,                    !- Demand Controlled Ventilation Type
    NoEconomizer,            !- Outdoor Air Economizer Type
    None,                    !- Heat Recovery Type
    0.7,                     !- Sensible Heat Recovery Effectiveness {dimensionless}
    0.65;                    !- Latent Heat Recovery Effectiveness {dimensionless}

HVACTemplate:Zone:IdealLoadsAirSystem,
    APTO03_P5,               !- Zone Name
    Thermostat,              !- Template Thermostat Name
    TLB Occupation Schedule, !- System Availability Schedule Name
    30,                      !- Maximum Heating Supply Air Temperature {C}
    13,                      !- Minimum Cooling Supply Air Temperature {C}
    0.0156,                  !- Maximum Heating Supply Air Humidity Ratio {kgWater/kgDryAir}
    0.0077,                  !- Minimum Cooling Supply Air Humidity Ratio {kgWater/kgDryAir}
    NoLimit,                 !- Heating Limit
    ,                        !- Maximum Heating Air Flow Rate {m3/s}
    ,                        !- Maximum Sensible Heating Capacity {W}
    NoLimit,                 !- Cooling Limit
    ,                        !- Maximum Cooling Air Flow Rate {m3/s}
    ,                        !- Maximum Total Cooling Capacity {W}
    ,                        !- Heating Availability Schedule Name
    ,                        !- Cooling Availability Schedule Name
    ConstantSensibleHeatRatio,  !- Dehumidification Control Type
    0.7,                     !- Cooling Sensible Heat Ratio {dimensionless}
    60,                      !- Dehumidification Setpoint {percent}
    None,                    !- Humidification Control Type
    30,                      !- Humidification Setpoint {percent}
    None,                    !- Outdoor Air Method
    0.00944,                 !- Outdoor Air Flow Rate per Person {m3/s}
    ,                        !- Outdoor Air Flow Rate per Zone Floor Area {m3/s-m2}
    ,                        !- Outdoor Air Flow Rate per Zone {m3/s}
    ,                        !- Design Specification Outdoor Air Object Name
    None,                    !- Demand Controlled Ventilation Type
    NoEconomizer,            !- Outdoor Air Economizer Type
    None,                    !- Heat Recovery Type
    0.7,                     !- Sensible Heat Recovery Effectiveness {dimensionless}
    0.65;                    !- Latent Heat Recovery Effectiveness {dimensionless}

HVACTemplate:Zone:IdealLoadsAirSystem,
    APTO04_P1,               !- Zone Name
    Thermostat,              !- Template Thermostat Name
    TLB Occupation Schedule, !- System Availability Schedule Name
    30,                      !- Maximum Heating Supply Air Temperature {C}
    13,                      !- Minimum Cooling Supply Air Temperature {C}
    0.0156,                  !- Maximum Heating Supply Air Humidity Ratio {kgWater/kgDryAir}
    0.0077,                  !- Minimum Cooling Supply Air Humidity Ratio {kgWater/kgDryAir}
    NoLimit,                 !- Heating Limit
    ,                        !- Maximum Heating Air Flow Rate {m3/s}
    ,                        !- Maximum Sensible Heating Capacity {W}
    NoLimit,                 !- Cooling Limit
    ,                        !- Maximum Cooling Air Flow Rate {m3/s}
    ,                        !- Maximum Total Cooling Capacity {W}
    ,                        !- Heating Availability Schedule Name
    ,                        !- Cooling Availability Schedule Name
    ConstantSensibleHeatRatio,  !- Dehumidification Control Type
    0.7,                     !- Cooling Sensible Heat Ratio {dimensionless}
    60,                      !- Dehumidification Setpoint {percent}
    None,                    !- Humidification Control Type
    30,                      !- Humidification Setpoint {percent}
    None,                    !- Outdoor Air Method
    0.00944,                 !- Outdoor Air Flow Rate per Person {m3/s}
    ,                        !- Outdoor Air Flow Rate per Zone Floor Area {m3/s-m2}
    ,                        !- Outdoor Air Flow Rate per Zone {m3/s}
    ,                        !- Design Specification Outdoor Air Object Name
    None,                    !- Demand Controlled Ventilation Type
    NoEconomizer,            !- Outdoor Air Economizer Type
    None,                    !- Heat Recovery Type
    0.7,                     !- Sensible Heat Recovery Effectiveness {dimensionless}
    0.65;                    !- Latent Heat Recovery Effectiveness {dimensionless}

HVACTemplate:Zone:IdealLoadsAirSystem,
    APTO04_P2,               !- Zone Name
    Thermostat,              !- Template Thermostat Name
    TLB Occupation Schedule, !- System Availability Schedule Name
    30,                      !- Maximum Heating Supply Air Temperature {C}
    13,                      !- Minimum Cooling Supply Air Temperature {C}
    0.0156,                  !- Maximum Heating Supply Air Humidity Ratio {kgWater/kgDryAir}
    0.0077,                  !- Minimum Cooling Supply Air Humidity Ratio {kgWater/kgDryAir}
    NoLimit,                 !- Heating Limit
    ,                        !- Maximum Heating Air Flow Rate {m3/s}
    ,                        !- Maximum Sensible Heating Capacity {W}
    NoLimit,                 !- Cooling Limit
    ,                        !- Maximum Cooling Air Flow Rate {m3/s}
    ,                        !- Maximum Total Cooling Capacity {W}
    ,                        !- Heating Availability Schedule Name
    ,                        !- Cooling Availability Schedule Name
    ConstantSensibleHeatRatio,  !- Dehumidification Control Type
    0.7,                     !- Cooling Sensible Heat Ratio {dimensionless}
    60,                      !- Dehumidification Setpoint {percent}
    None,                    !- Humidification Control Type
    30,                      !- Humidification Setpoint {percent}
    None,                    !- Outdoor Air Method
    0.00944,                 !- Outdoor Air Flow Rate per Person {m3/s}
    ,                        !- Outdoor Air Flow Rate per Zone Floor Area {m3/s-m2}
    ,                        !- Outdoor Air Flow Rate per Zone {m3/s}
    ,                        !- Design Specification Outdoor Air Object Name
    None,                    !- Demand Controlled Ventilation Type
    NoEconomizer,            !- Outdoor Air Economizer Type
    None,                    !- Heat Recovery Type
    0.7,                     !- Sensible Heat Recovery Effectiveness {dimensionless}
    0.65;                    !- Latent Heat Recovery Effectiveness {dimensionless}

HVACTemplate:Zone:IdealLoadsAirSystem,
    APTO04_P3,               !- Zone Name
    Thermostat,              !- Template Thermostat Name
    TLB Occupation Schedule, !- System Availability Schedule Name
    30,                      !- Maximum Heating Supply Air Temperature {C}
    13,                      !- Minimum Cooling Supply Air Temperature {C}
    0.0156,                  !- Maximum Heating Supply Air Humidity Ratio {kgWater/kgDryAir}
    0.0077,                  !- Minimum Cooling Supply Air Humidity Ratio {kgWater/kgDryAir}
    NoLimit,                 !- Heating Limit
    ,                        !- Maximum Heating Air Flow Rate {m3/s}
    ,                        !- Maximum Sensible Heating Capacity {W}
    NoLimit,                 !- Cooling Limit
    ,                        !- Maximum Cooling Air Flow Rate {m3/s}
    ,                        !- Maximum Total Cooling Capacity {W}
    ,                        !- Heating Availability Schedule Name
    ,                        !- Cooling Availability Schedule Name
    ConstantSensibleHeatRatio,  !- Dehumidification Control Type
    0.7,                     !- Cooling Sensible Heat Ratio {dimensionless}
    60,                      !- Dehumidification Setpoint {percent}
    None,                    !- Humidification Control Type
    30,                      !- Humidification Setpoint {percent}
    None,                    !- Outdoor Air Method
    0.00944,                 !- Outdoor Air Flow Rate per Person {m3/s}
    ,                        !- Outdoor Air Flow Rate per Zone Floor Area {m3/s-m2}
    ,                        !- Outdoor Air Flow Rate per Zone {m3/s}
    ,                        !- Design Specification Outdoor Air Object Name
    None,                    !- Demand Controlled Ventilation Type
    NoEconomizer,            !- Outdoor Air Economizer Type
    None,                    !- Heat Recovery Type
    0.7,                     !- Sensible Heat Recovery Effectiveness {dimensionless}
    0.65;                    !- Latent Heat Recovery Effectiveness {dimensionless}

HVACTemplate:Zone:IdealLoadsAirSystem,
    APTO04_P4,               !- Zone Name
    Thermostat,              !- Template Thermostat Name
    TLB Occupation Schedule, !- System Availability Schedule Name
    30,                      !- Maximum Heating Supply Air Temperature {C}
    13,                      !- Minimum Cooling Supply Air Temperature {C}
    0.0156,                  !- Maximum Heating Supply Air Humidity Ratio {kgWater/kgDryAir}
    0.0077,                  !- Minimum Cooling Supply Air Humidity Ratio {kgWater/kgDryAir}
    NoLimit,                 !- Heating Limit
    ,                        !- Maximum Heating Air Flow Rate {m3/s}
    ,                        !- Maximum Sensible Heating Capacity {W}
    NoLimit,                 !- Cooling Limit
    ,                        !- Maximum Cooling Air Flow Rate {m3/s}
    ,                        !- Maximum Total Cooling Capacity {W}
    ,                        !- Heating Availability Schedule Name
    ,                        !- Cooling Availability Schedule Name
    ConstantSensibleHeatRatio,  !- Dehumidification Control Type
    0.7,                     !- Cooling Sensible Heat Ratio {dimensionless}
    60,                      !- Dehumidification Setpoint {percent}
    None,                    !- Humidification Control Type
    30,                      !- Humidification Setpoint {percent}
    None,                    !- Outdoor Air Method
    0.00944,                 !- Outdoor Air Flow Rate per Person {m3/s}
    ,                        !- Outdoor Air Flow Rate per Zone Floor Area {m3/s-m2}
    ,                        !- Outdoor Air Flow Rate per Zone {m3/s}
    ,                        !- Design Specification Outdoor Air Object Name
    None,                    !- Demand Controlled Ventilation Type
    NoEconomizer,            !- Outdoor Air Economizer Type
    None,                    !- Heat Recovery Type
    0.7,                     !- Sensible Heat Recovery Effectiveness {dimensionless}
    0.65;                    !- Latent Heat Recovery Effectiveness {dimensionless}

HVACTemplate:Zone:IdealLoadsAirSystem,
    APTO04_P5,               !- Zone Name
    Thermostat,              !- Template Thermostat Name
    TLB Occupation Schedule, !- System Availability Schedule Name
    30,                      !- Maximum Heating Supply Air Temperature {C}
    13,                      !- Minimum Cooling Supply Air Temperature {C}
    0.0156,                  !- Maximum Heating Supply Air Humidity Ratio {kgWater/kgDryAir}
    0.0077,                  !- Minimum Cooling Supply Air Humidity Ratio {kgWater/kgDryAir}
    NoLimit,                 !- Heating Limit
    ,                        !- Maximum Heating Air Flow Rate {m3/s}
    ,                        !- Maximum Sensible Heating Capacity {W}
    NoLimit,                 !- Cooling Limit
    ,                        !- Maximum Cooling Air Flow Rate {m3/s}
    ,                        !- Maximum Total Cooling Capacity {W}
    ,                        !- Heating Availability Schedule Name
    ,                        !- Cooling Availability Schedule Name
    ConstantSensibleHeatRatio,  !- Dehumidification Control Type
    0.7,                     !- Cooling Sensible Heat Ratio {dimensionless}
    60,                      !- Dehumidification Setpoint {percent}
    None,                    !- Humidification Control Type
    30,                      !- Humidification Setpoint {percent}
    None,                    !- Outdoor Air Method
    0.00944,                 !- Outdoor Air Flow Rate per Person {m3/s}
    ,                        !- Outdoor Air Flow Rate per Zone Floor Area {m3/s-m2}
    ,                        !- Outdoor Air Flow Rate per Zone {m3/s}
    ,                        !- Design Specification Outdoor Air Object Name
    None,                    !- Demand Controlled Ventilation Type
    NoEconomizer,            !- Outdoor Air Economizer Type
    None,                    !- Heat Recovery Type
    0.7,                     !- Sensible Heat Recovery Effectiveness {dimensionless}
    0.65;                    !- Latent Heat Recovery Effectiveness {dimensionless}


!-   ===========  ALL OBJECTS IN CLASS: OUTPUT:VARIABLEDICTIONARY ===========

Output:VariableDictionary,
    IDF;                     !- Key Field


!-   ===========  ALL OBJECTS IN CLASS: OUTPUT:TABLE:SUMMARYREPORTS ===========

Output:Table:SummaryReports,
    AllSummary;              !- Report 1 Name


!-   ===========  ALL OBJECTS IN CLASS: OUTPUTCONTROL:TABLE:STYLE ===========

OutputControl:Table:Style,
    CommaAndHTML,            !- Column Separator
    JtoKWH;                  !- Unit Conversion


!-   ===========  ALL OBJECTS IN CLASS: OUTPUT:VARIABLE ===========

Output:Variable,
    *,                       !- Key Value
    Zone Ideal Loads Zone Total Heating Energy,  !- Variable Name
    Monthly;                 !- Reporting Frequency

Output:Variable,
    *,                       !- Key Value
    Zone Ideal Loads Zone Total Cooling Energy,  !- Variable Name
    Monthly;                 !- Reporting Frequency


!-   ===========  ALL OBJECTS IN CLASS: OUTPUT:METER ===========

Output:Meter,
    DistrictCooling:HVAC,    !- Key Name
    Monthly;                 !- Reporting Frequency

Output:Meter,
    DistrictHeating:HVAC,    !- Key Name
    Monthly;                 !- Reporting Frequency

