!-Generator IDFEditor 1.50
!-Option SortedOrder

!-NOTE: All comments with '!-' are ignored by the IDFEditor and are generated automatically.
!-      Use '!' comments if they need to be retained when using the IDFEditor.


!-   ===========  ALL OBJECTS IN CLASS: VERSION ===========

Version,
    9.0;                     !- Version Identifier


!-   ===========  ALL OBJECTS IN CLASS: SIMULATIONCONTROL ===========

SimulationControl,
    Yes,                     !- Do Zone Sizing Calculation
    Yes,                     !- Do System Sizing Calculation
    Yes,                     !- Do Plant Sizing Calculation
    No,                      !- Run Simulation for Sizing Periods
    Yes;                     !- Run Simulation for Weather File Run Periods


!-   ===========  ALL OBJECTS IN CLASS: BUILDING ===========

Building,
    ElisRegina,              !- Name
    358.95554,               !- North Axis {deg}
    City,                    !- Terrain
    0.4,                     !- Loads Convergence Tolerance Value
    0.4,                     !- Temperature Convergence Tolerance Value {deltaC}
    FullExterior,            !- Solar Distribution
    25,                      !- Maximum Number of Warmup Days
    ;                        !- Minimum Number of Warmup Days


!-   ===========  ALL OBJECTS IN CLASS: ZONEAIRCONTAMINANTBALANCE ===========

ZoneAirContaminantBalance,
    Yes,                     !- Carbon Dioxide Concentration
    CO Concentration;        !- Outdoor Carbon Dioxide Schedule Name


!-   ===========  ALL OBJECTS IN CLASS: TIMESTEP ===========

Timestep,
    4;                       !- Number of Timesteps per Hour


!-   ===========  ALL OBJECTS IN CLASS: SITE:LOCATION ===========

Site:Location,
    PassoFundo_RS,           !- Name
    -28.26,                  !- Latitude {deg}
    -52.4,                   !- Longitude {deg}
    -3.0,                    !- Time Zone {hr}
    686;                     !- Elevation {m}


!-   ===========  ALL OBJECTS IN CLASS: SIZINGPERIOD:DESIGNDAY ===========

SizingPeriod:DesignDay,
    PassoFundo_inverno_DB,   !- Name
    6,                       !- Month
    5,                       !- Day of Month
    WinterDesignDay,         !- Day Type
    21.8,                    !- Maximum Dry-Bulb Temperature {C}
    7.2,                     !- Daily Dry-Bulb Temperature Range {deltaC}
    DefaultMultipliers,      !- Dry-Bulb Temperature Range Modifier Type
    ,                        !- Dry-Bulb Temperature Range Modifier Day Schedule Name
    DewPoint,                !- Humidity Condition Type
    16.8,                    !- Wetbulb or DewPoint at Maximum Dry-Bulb {C}
    ,                        !- Humidity Condition Day Schedule Name
    ,                        !- Humidity Ratio at Maximum Dry-Bulb {kgWater/kgDryAir}
    ,                        !- Enthalpy at Maximum Dry-Bulb {J/kg}
    ,                        !- Daily Wet-Bulb Temperature Range {deltaC}
    100034,                  !- Barometric Pressure {Pa}
    6.9,                     !- Wind Speed {m/s}
    45,                      !- Wind Direction {deg}
    No,                      !- Rain Indicator
    No,                      !- Snow Indicator
    No,                      !- Daylight Saving Time Indicator
    ASHRAEClearSky,          !- Solar Model Indicator
    ,                        !- Beam Solar Day Schedule Name
    ,                        !- Diffuse Solar Day Schedule Name
    ,                        !- ASHRAE Clear Sky Optical Depth for Beam Irradiance (taub) {dimensionless}
    ,                        !- ASHRAE Clear Sky Optical Depth for Diffuse Irradiance (taud) {dimensionless}
    0;                       !- Sky Clearness

SizingPeriod:DesignDay,
    PassoFundo_verao_DB,     !- Name
    1,                       !- Month
    10,                      !- Day of Month
    SummerDesignDay,         !- Day Type
    36.1,                    !- Maximum Dry-Bulb Temperature {C}
    8.7,                     !- Daily Dry-Bulb Temperature Range {deltaC}
    DefaultMultipliers,      !- Dry-Bulb Temperature Range Modifier Type
    ,                        !- Dry-Bulb Temperature Range Modifier Day Schedule Name
    DewPoint,                !- Humidity Condition Type
    25.5,                    !- Wetbulb or DewPoint at Maximum Dry-Bulb {C}
    ,                        !- Humidity Condition Day Schedule Name
    ,                        !- Humidity Ratio at Maximum Dry-Bulb {kgWater/kgDryAir}
    ,                        !- Enthalpy at Maximum Dry-Bulb {J/kg}
    ,                        !- Daily Wet-Bulb Temperature Range {deltaC}
    100034,                  !- Barometric Pressure {Pa}
    8.3,                     !- Wind Speed {m/s}
    90,                      !- Wind Direction {deg}
    No,                      !- Rain Indicator
    No,                      !- Snow Indicator
    No,                      !- Daylight Saving Time Indicator
    ASHRAEClearSky,          !- Solar Model Indicator
    ,                        !- Beam Solar Day Schedule Name
    ,                        !- Diffuse Solar Day Schedule Name
    ,                        !- ASHRAE Clear Sky Optical Depth for Beam Irradiance (taub) {dimensionless}
    ,                        !- ASHRAE Clear Sky Optical Depth for Diffuse Irradiance (taud) {dimensionless}
    1;                       !- Sky Clearness


!-   ===========  ALL OBJECTS IN CLASS: RUNPERIOD ===========

RunPeriod,
    ,                        !- Name
    1,                       !- Begin Month
    1,                       !- Begin Day of Month
    ,                        !- Begin Year
    12,                      !- End Month
    31,                      !- End Day of Month
    ,                        !- End Year
    ,                        !- Day of Week for Start Day
    Yes,                     !- Use Weather File Holidays and Special Days
    Yes,                     !- Use Weather File Daylight Saving Period
    No,                      !- Apply Weekend Holiday Rule
    Yes,                     !- Use Weather File Rain Indicators
    Yes,                     !- Use Weather File Snow Indicators
    No;                      !- Treat Weather as Actual


!-   ===========  ALL OBJECTS IN CLASS: RUNPERIODCONTROL:SPECIALDAYS ===========

RunPeriodControl:SpecialDays,
    Conf Universal,          !- Name
    January 1,               !- Start Date
    1,                       !- Duration {days}
    Holiday;                 !- Special Day Type

RunPeriodControl:SpecialDays,
    Carnaval,                !- Name
    3rd Tuesday in February, !- Start Date
    1,                       !- Duration {days}
    Holiday;                 !- Special Day Type

RunPeriodControl:SpecialDays,
    Sexta-Feira Santa,       !- Name
    1st Friday in April,     !- Start Date
    1,                       !- Duration {days}
    Holiday;                 !- Special Day Type

RunPeriodControl:SpecialDays,
    Tiradentes,              !- Name
    April 21,                !- Start Date
    1,                       !- Duration {days}
    Holiday;                 !- Special Day Type

RunPeriodControl:SpecialDays,
    Dia do Trabalho,         !- Name
    May 1,                   !- Start Date
    1,                       !- Duration {days}
    Holiday;                 !- Special Day Type

RunPeriodControl:SpecialDays,
    Corpus Christi,          !- Name
    1st Thursday in June,    !- Start Date
    1,                       !- Duration {days}
    Holiday;                 !- Special Day Type

RunPeriodControl:SpecialDays,
    Independencia,           !- Name
    September 7,             !- Start Date
    1,                       !- Duration {days}
    Holiday;                 !- Special Day Type

RunPeriodControl:SpecialDays,
    Nossa Senhora Aparecida, !- Name
    October 12,              !- Start Date
    1,                       !- Duration {days}
    Holiday;                 !- Special Day Type

RunPeriodControl:SpecialDays,
    Finados,                 !- Name
    November 2,              !- Start Date
    1,                       !- Duration {days}
    Holiday;                 !- Special Day Type

RunPeriodControl:SpecialDays,
    Proc Republica,          !- Name
    November 15,             !- Start Date
    1,                       !- Duration {days}
    Holiday;                 !- Special Day Type

RunPeriodControl:SpecialDays,
    Natal,                   !- Name
    December 25,             !- Start Date
    1,                       !- Duration {days}
    Holiday;                 !- Special Day Type

RunPeriodControl:SpecialDays,
    Dia do Gaucho,           !- Name
    September 20,            !- Start Date
    1,                       !- Duration {days}
    Holiday;                 !- Special Day Type


!-   ===========  ALL OBJECTS IN CLASS: RUNPERIODCONTROL:DAYLIGHTSAVINGTIME ===========

RunPeriodControl:DaylightSavingTime,
    2nd Sunday in March,     !- Start Date
    1st Sunday in November;  !- End Date


!-   ===========  ALL OBJECTS IN CLASS: SITE:GROUNDTEMPERATURE:BUILDINGSURFACE ===========

Site:GroundTemperature:BuildingSurface,
    23.2,                    !- January Ground Temperature {C}
    23.3,                    !- February Ground Temperature {C}
    23.3,                    !- March Ground Temperature {C}
    22.5,                    !- April Ground Temperature {C}
    21.6,                    !- May Ground Temperature {C}
    20.7,                    !- June Ground Temperature {C}
    20.5,                    !- July Ground Temperature {C}
    21.2,                    !- August Ground Temperature {C}
    21.4,                    !- September Ground Temperature {C}
    22.2,                    !- October Ground Temperature {C}
    23.1,                    !- November Ground Temperature {C}
    23.3;                    !- December Ground Temperature {C}


!-   ===========  ALL OBJECTS IN CLASS: SCHEDULETYPELIMITS ===========

ScheduleTypeLimits,
    Any Number;              !- Name

ScheduleTypeLimits,
    Fraction,                !- Name
    0,                       !- Lower Limit Value
    1,                       !- Upper Limit Value
    CONTINUOUS;              !- Numeric Type

ScheduleTypeLimits,
    Temperature,             !- Name
    -60,                     !- Lower Limit Value
    200,                     !- Upper Limit Value
    CONTINUOUS;              !- Numeric Type

ScheduleTypeLimits,
    On/Off,                  !- Name
    0,                       !- Lower Limit Value
    1,                       !- Upper Limit Value
    DISCRETE;                !- Numeric Type

ScheduleTypeLimits,
    Control Type,            !- Name
    0,                       !- Lower Limit Value
    4,                       !- Upper Limit Value
    DISCRETE;                !- Numeric Type

ScheduleTypeLimits,
    Humidity,                !- Name
    10,                      !- Lower Limit Value
    90,                      !- Upper Limit Value
    CONTINUOUS;              !- Numeric Type

ScheduleTypeLimits,
    Number;                  !- Name


!-   ===========  ALL OBJECTS IN CLASS: SCHEDULE:COMPACT ===========

Schedule:Compact,
    Always On,               !- Name
    On/Off,                  !- Schedule Type Limits Name
    Through: 12/31,          !- Field 1
    For: AllDays,            !- Field 2
    Until: 24:00,            !- Field 3
    1.0;                     !- Field 4

Schedule:Compact,
    Always Off,              !- Name
    On/Off,                  !- Schedule Type Limits Name
    Through: 12/31,          !- Field 1
    For: AllDays,            !- Field 2
    Until: 24:00,            !- Field 3
    0.0;                     !- Field 4

Schedule:Compact,
    VN_19,                   !- Name
    Temperature,             !- Schedule Type Limits Name
    Through: 12/31,          !- Field 1
    For: AllDays,            !- Field 2
    Until: 24:00,            !- Field 3
    19;                      !- Field 4

Schedule:Compact,
    TLB Occupation Schedule, !- Name
    Fraction,                !- Schedule Type Limits Name
    Through: 12/31,          !- Field 1
    For: AllDays,            !- Field 2
    Until: 08:00,            !- Field 3
    1,                       !- Field 4
    Until: 14:00,            !- Field 5
    0,                       !- Field 6
    Until: 18:00,            !- Field 7
    .5,                      !- Field 8
    Until: 24:00,            !- Field 9
    1;                       !- Field 10

Schedule:Compact,
    TLB Ilumination Schedule,!- Name
    Fraction,                !- Schedule Type Limits Name
    Through: 12/31,          !- Field 1
    For: AllDays,            !- Field 2
    Until: 06:00,            !- Field 3
    0,                       !- Field 4
    Until: 08:00,            !- Field 5
    1,                       !- Field 6
    Until: 16:00,            !- Field 7
    0,                       !- Field 8
    Until: 24:00,            !- Field 9
    1;                       !- Field 10

Schedule:Compact,
    TBL Activities,          !- Name
    Any Number,              !- Schedule Type Limits Name
    Through: 12/31,          !- Field 1
    For: AllDays,            !- Field 2
    Until: 08:00,            !- Field 3
    81,                      !- Field 4
    Until: 14:00,            !- Field 5
    0,                       !- Field 6
    Until: 22:00,            !- Field 7
    108,                     !- Field 8
    Until: 24:00,            !- Field 9
    81;                      !- Field 10

Schedule:Compact,
    TLB INI-R Equipments,    !- Name
    Fraction,                !- Schedule Type Limits Name
    Through: 12/31,          !- Field 1
    For: AllDays,            !- Field 2
    Until: 14:00,            !- Field 3
    0,                       !- Field 4
    Until: 22:00,            !- Field 5
    1,                       !- Field 6
    Until: 24:00,            !- Field 7
    0;                       !- Field 8

Schedule:Compact,
    CO Concentration,        !- Name
    Any Number,              !- Schedule Type Limits Name
    Through: 12/31,          !- Field 1
    For: AllDays,            !- Field 2
    Until: 24:00,            !- Field 3
    400;                     !- Field 4


!-   ===========  ALL OBJECTS IN CLASS: MATERIAL ===========

Material,
    Argamassa piso,          !- Name
    Smooth,                  !- Roughness
    0.02,                    !- Thickness {m}
    1.15,                    !- Conductivity {W/m-K}
    1800,                    !- Density {kg/m3}
    1000,                    !- Specific Heat {J/kg-K}
    0.85,                    !- Thermal Absorptance
    0.3,                     !- Solar Absorptance
    0.3;                     !- Visible Absorptance

Material,
    Fibercement tile,        !- Name
    Smooth,                  !- Roughness
    0.006,                   !- Thickness {m}
    0.65,                    !- Conductivity {W/m-K}
    1700,                    !- Density {kg/m3}
    840,                     !- Specific Heat {J/kg-K}
    0.9,                     !- Thermal Absorptance
    0.65,                    !- Solar Absorptance
    0.6;                     !- Visible Absorptance

Material,
    Ceramica equiv externa,  !- Name
    MediumSmooth,            !- Roughness
    0.18,                    !- Thickness {m}
    0.9,                     !- Conductivity {W/m-K}
    785,                     !- Density {kg/m3}
    920;                     !- Specific Heat {J/kg-K}

Material,
    Ext mortar,              !- Name
    Smooth,                  !- Roughness
    0.025,                   !- Thickness {m}
    1.15,                    !- Conductivity {W/m-K}
    1800,                    !- Density {kg/m3}
    1000,                    !- Specific Heat {J/kg-K}
    0.9,                     !- Thermal Absorptance
    0.58,                    !- Solar Absorptance
    0.2;                     !- Visible Absorptance

Material,
    Revestimento Ceramico 10mm,  !- Name
    MediumSmooth,            !- Roughness
    0.01,                    !- Thickness {m}
    1.3,                     !- Conductivity {W/m-K}
    2300,                    !- Density {kg/m3}
    965,                     !- Specific Heat {J/kg-K}
    0.9,                     !- Thermal Absorptance
    0.2,                     !- Solar Absorptance
    0.2;                     !- Visible Absorptance

Material,
    Ceramica equiv interna,  !- Name
    MediumSmooth,            !- Roughness
    0.18,                    !- Thickness {m}
    0.9,                     !- Conductivity {W/m-K}
    785,                     !- Density {kg/m3}
    920;                     !- Specific Heat {J/kg-K}

Material,
    Argamassa reb int,       !- Name
    Smooth,                  !- Roughness
    0.015,                   !- Thickness {m}
    1.15,                    !- Conductivity {W/m-K}
    1800,                    !- Density {kg/m3}
    1000,                    !- Specific Heat {J/kg-K}
    0.9,                     !- Thermal Absorptance
    0.2,                     !- Solar Absorptance
    0.2;                     !- Visible Absorptance

Material,
    Rockwool,                !- Name
    MediumRough,             !- Roughness
    0.005,                   !- Thickness {m}
    0.045,                   !- Conductivity {W/m-K}
    200,                     !- Density {kg/m3}
    750,                     !- Specific Heat {J/kg-K}
    0.9,                     !- Thermal Absorptance
    0.2,                     !- Solar Absorptance
    0.2;                     !- Visible Absorptance

Material,
    Concreto laje,           !- Name
    MediumRough,             !- Roughness
    0.1,                     !- Thickness {m}
    1.75,                    !- Conductivity {W/m-K}
    2200,                    !- Density {kg/m3}
    1000;                    !- Specific Heat {J/kg-K}

Material,
    Porta exterior,          !- Name
    Smooth,                  !- Roughness
    0.05,                    !- Thickness {m}
    0.2,                     !- Conductivity {W/m-K}
    850,                     !- Density {kg/m3}
    2300,                    !- Specific Heat {J/kg-K}
    0.9,                     !- Thermal Absorptance
    0.2,                     !- Solar Absorptance
    0.2;                     !- Visible Absorptance

Material,
    Placa cimenticia,        !- Name
    MediumRough,             !- Roughness
    0.01,                    !- Thickness {m}
    0.95,                    !- Conductivity {W/m-K}
    2200,                    !- Density {kg/m3}
    840,                     !- Specific Heat {J/kg-K}
    0.9,                     !- Thermal Absorptance
    0.2,                     !- Solar Absorptance
    0.2;                     !- Visible Absorptance

Material,
    Rockwool_north,          !- Name
    MediumRough,             !- Roughness
    0.005,                   !- Thickness {m}
    0.045,                   !- Conductivity {W/m-K}
    200,                     !- Density {kg/m3}
    750,                     !- Specific Heat {J/kg-K}
    0.9,                     !- Thermal Absorptance
    0.2,                     !- Solar Absorptance
    0.2;                     !- Visible Absorptance

Material,
    Rockwool_south,          !- Name
    MediumRough,             !- Roughness
    0.005,                   !- Thickness {m}
    0.045,                   !- Conductivity {W/m-K}
    200,                     !- Density {kg/m3}
    750,                     !- Specific Heat {J/kg-K}
    0.9,                     !- Thermal Absorptance
    0.2,                     !- Solar Absorptance
    0.2;                     !- Visible Absorptance

Material,
    Rockwool_west,           !- Name
    MediumRough,             !- Roughness
    0.005,                   !- Thickness {m}
    0.045,                   !- Conductivity {W/m-K}
    200,                     !- Density {kg/m3}
    750,                     !- Specific Heat {J/kg-K}
    0.9,                     !- Thermal Absorptance
    0.2,                     !- Solar Absorptance
    0.2;                     !- Visible Absorptance

Material,
    Rockwool_east,           !- Name
    MediumRough,             !- Roughness
    0.005,                   !- Thickness {m}
    0.045,                   !- Conductivity {W/m-K}
    200,                     !- Density {kg/m3}
    750,                     !- Specific Heat {J/kg-K}
    0.9,                     !- Thermal Absorptance
    0.2,                     !- Solar Absorptance
    0.2;                     !- Visible Absorptance

Material,
    Rockwool_roof,           !- Name
    MediumRough,             !- Roughness
    0.005,                   !- Thickness {m}
    0.045,                   !- Conductivity {W/m-K}
    200,                     !- Density {kg/m3}
    750,                     !- Specific Heat {J/kg-K}
    0.9,                     !- Thermal Absorptance
    0.2,                     !- Solar Absorptance
    0.2;                     !- Visible Absorptance


!-   ===========  ALL OBJECTS IN CLASS: MATERIAL:AIRGAP ===========

Material:AirGap,
    F04 Wall air space resistance,  !- Name
    0.15;                    !- Thermal Resistance {m2-K/W}

Material:AirGap,
    F05 Ceiling air space resistance,  !- Name
    0.18;                    !- Thermal Resistance {m2-K/W}

Material:AirGap,
    Ar ascendente maior 5,   !- Name
    0.14;                    !- Thermal Resistance {m2-K/W}

Material:AirGap,
    AR_5cm_HOR,              !- Name
    0.16;                    !- Thermal Resistance {m2-K/W}

Material:AirGap,
    AR_5cm_DESC,             !- Name
    0.21;                    !- Thermal Resistance {m2-K/W}

Material:AirGap,
    AR_cobertura,            !- Name
    0.14;                    !- Thermal Resistance {m2-K/W}


!-   ===========  ALL OBJECTS IN CLASS: WINDOWMATERIAL:GLAZING ===========

WindowMaterial:Glazing,
    Clear 3mm,               !- Name
    SpectralAverage,         !- Optical Data Type
    ,                        !- Window Glass Spectral Data Set Name
    0.003,                   !- Thickness {m}
    0.837,                   !- Solar Transmittance at Normal Incidence
    0.075,                   !- Front Side Solar Reflectance at Normal Incidence
    0.075,                   !- Back Side Solar Reflectance at Normal Incidence
    0.898,                   !- Visible Transmittance at Normal Incidence
    0.081,                   !- Front Side Visible Reflectance at Normal Incidence
    0.081,                   !- Back Side Visible Reflectance at Normal Incidence
    0,                       !- Infrared Transmittance at Normal Incidence
    0.84,                    !- Front Side Infrared Hemispherical Emissivity
    0.84,                    !- Back Side Infrared Hemispherical Emissivity
    0.9;                     !- Conductivity {W/m-K}


!-   ===========  ALL OBJECTS IN CLASS: WINDOWMATERIAL:GAS ===========

WindowMaterial:Gas,
    Air 13mm,                !- Name
    Air,                     !- Gas Type
    0.0127;                  !- Thickness {m}


!-   ===========  ALL OBJECTS IN CLASS: CONSTRUCTION ===========

Construction,
    Exterior Floor,          !- Name
    Revestimento Ceramico 10mm,  !- Outside Layer
    Argamassa piso,          !- Layer 2
    Concreto laje;           !- Layer 3

Construction,
    Interior Wall,           !- Name
    Argamassa reb int,       !- Outside Layer
    Ceramica equiv interna,  !- Layer 2
    Argamassa reb int;       !- Layer 3

Construction,
    Exterior Roof,           !- Name
    Fibercement tile,        !- Outside Layer
    AR_5cm_DESC,             !- Layer 2
    Rockwool_roof,           !- Layer 3
    Concreto laje,           !- Layer 4
    Argamassa reb int;       !- Layer 5

Construction,
    Exterior Window,         !- Name
    Clear 3mm;               !- Outside Layer

Construction,
    Exterior Door,           !- Name
    Porta exterior;          !- Outside Layer

Construction,
    Interior Floor,          !- Name
    Revestimento Ceramico 10mm,  !- Outside Layer
    Argamassa piso,          !- Layer 2
    Concreto laje,           !- Layer 3
    Argamassa reb int;       !- Layer 4

Construction,
    Interior Ceiling,        !- Name
    Argamassa reb int,       !- Outside Layer
    Concreto laje,           !- Layer 2
    Argamassa piso,          !- Layer 3
    Revestimento Ceramico 10mm;  !- Layer 4

Construction,
    Exterior Wall North,     !- Name
    Ext mortar,              !- Outside Layer
    Placa cimenticia,        !- Layer 2
    Rockwool_north,          !- Layer 3
    Ceramica equiv externa,  !- Layer 4
    Argamassa reb int;       !- Layer 5

Construction,
    Exterior Wall South,     !- Name
    Ext mortar,              !- Outside Layer
    Placa cimenticia,        !- Layer 2
    Rockwool_south,          !- Layer 3
    Ceramica equiv externa,  !- Layer 4
    Argamassa reb int;       !- Layer 5

Construction,
    Exterior Wall West,      !- Name
    Ext mortar,              !- Outside Layer
    Placa cimenticia,        !- Layer 2
    Rockwool_west,           !- Layer 3
    Ceramica equiv externa,  !- Layer 4
    Argamassa reb int;       !- Layer 5

Construction,
    Exterior Wall East,      !- Name
    Ext mortar,              !- Outside Layer
    Placa cimenticia,        !- Layer 2
    Rockwool_east,           !- Layer 3
    Ceramica equiv externa,  !- Layer 4
    Argamassa reb int;       !- Layer 5


!-   ===========  ALL OBJECTS IN CLASS: GLOBALGEOMETRYRULES ===========

GlobalGeometryRules,
    UpperLeftCorner,         !- Starting Vertex Position
    Counterclockwise,        !- Vertex Entry Direction
    Relative;                !- Coordinate System


!-   ===========  ALL OBJECTS IN CLASS: ZONE ===========

Zone,
    APTO02_P1,               !- Name
    0.0,                     !- Direction of Relative North {deg}
    0.0,                     !- X Origin {m}
    0.0,                     !- Y Origin {m}
    0.0,                     !- Z Origin {m}
    ,                        !- Type
    1;                       !- Multiplier

Zone,
    APTO01_P1,               !- Name
    0.0,                     !- Direction of Relative North {deg}
    0.0,                     !- X Origin {m}
    0.0,                     !- Y Origin {m}
    0.0,                     !- Z Origin {m}
    ,                        !- Type
    1;                       !- Multiplier

Zone,
    APTO03_P1,               !- Name
    0.0,                     !- Direction of Relative North {deg}
    0.0,                     !- X Origin {m}
    0.0,                     !- Y Origin {m}
    0.0,                     !- Z Origin {m}
    ,                        !- Type
    1;                       !- Multiplier

Zone,
    APTO04_P1,               !- Name
    0.0,                     !- Direction of Relative North {deg}
    0.0,                     !- X Origin {m}
    0.0,                     !- Y Origin {m}
    0.0,                     !- Z Origin {m}
    ,                        !- Type
    1;                       !- Multiplier

Zone,
    CIRCULA_P1,              !- Name
    0.0,                     !- Direction of Relative North {deg}
    0.0,                     !- X Origin {m}
    0.0,                     !- Y Origin {m}
    0.0,                     !- Z Origin {m}
    ,                        !- Type
    1;                       !- Multiplier

Zone,
    CIRCULA_P2,              !- Name
    0.0,                     !- Direction of Relative North {deg}
    0.0,                     !- X Origin {m}
    0.0,                     !- Y Origin {m}
    0.0,                     !- Z Origin {m}
    ,                        !- Type
    1;                       !- Multiplier

Zone,
    CIRCULA_P3,              !- Name
    0.0,                     !- Direction of Relative North {deg}
    0.0,                     !- X Origin {m}
    0.0,                     !- Y Origin {m}
    0.0,                     !- Z Origin {m}
    ,                        !- Type
    1;                       !- Multiplier

Zone,
    CIRCULA_P4,              !- Name
    0.0,                     !- Direction of Relative North {deg}
    0.0,                     !- X Origin {m}
    0.0,                     !- Y Origin {m}
    0.0,                     !- Z Origin {m}
    ,                        !- Type
    1;                       !- Multiplier

Zone,
    CIRCULA_P5,              !- Name
    0.0,                     !- Direction of Relative North {deg}
    0.0,                     !- X Origin {m}
    0.0,                     !- Y Origin {m}
    0.0,                     !- Z Origin {m}
    ,                        !- Type
    1;                       !- Multiplier

Zone,
    APTO04_P2,               !- Name
    0.0,                     !- Direction of Relative North {deg}
    0.0,                     !- X Origin {m}
    0.0,                     !- Y Origin {m}
    0.0,                     !- Z Origin {m}
    ,                        !- Type
    1;                       !- Multiplier

Zone,
    APTO01_P2,               !- Name
    0.0,                     !- Direction of Relative North {deg}
    0.0,                     !- X Origin {m}
    0.0,                     !- Y Origin {m}
    0.0,                     !- Z Origin {m}
    ,                        !- Type
    1;                       !- Multiplier

Zone,
    APTO03_P2,               !- Name
    0.0,                     !- Direction of Relative North {deg}
    0.0,                     !- X Origin {m}
    0.0,                     !- Y Origin {m}
    0.0,                     !- Z Origin {m}
    ,                        !- Type
    1;                       !- Multiplier

Zone,
    APTO02_P2,               !- Name
    0.0,                     !- Direction of Relative North {deg}
    0.0,                     !- X Origin {m}
    0.0,                     !- Y Origin {m}
    0.0,                     !- Z Origin {m}
    ,                        !- Type
    1;                       !- Multiplier

Zone,
    APTO04_P3,               !- Name
    0.0,                     !- Direction of Relative North {deg}
    0.0,                     !- X Origin {m}
    0.0,                     !- Y Origin {m}
    0.0,                     !- Z Origin {m}
    ,                        !- Type
    1;                       !- Multiplier

Zone,
    APTO02_P3,               !- Name
    0.0,                     !- Direction of Relative North {deg}
    0.0,                     !- X Origin {m}
    0.0,                     !- Y Origin {m}
    0.0,                     !- Z Origin {m}
    ,                        !- Type
    1;                       !- Multiplier

Zone,
    APTO03_P3,               !- Name
    0.0,                     !- Direction of Relative North {deg}
    0.0,                     !- X Origin {m}
    0.0,                     !- Y Origin {m}
    0.0,                     !- Z Origin {m}
    ,                        !- Type
    1;                       !- Multiplier

Zone,
    APTO01_P3,               !- Name
    0.0,                     !- Direction of Relative North {deg}
    0.0,                     !- X Origin {m}
    0.0,                     !- Y Origin {m}
    0.0,                     !- Z Origin {m}
    ,                        !- Type
    1;                       !- Multiplier

Zone,
    APTO03_P4,               !- Name
    0.0,                     !- Direction of Relative North {deg}
    0.0,                     !- X Origin {m}
    0.0,                     !- Y Origin {m}
    0.0,                     !- Z Origin {m}
    ,                        !- Type
    1;                       !- Multiplier

Zone,
    APTO01_P4,               !- Name
    0.0,                     !- Direction of Relative North {deg}
    0.0,                     !- X Origin {m}
    0.0,                     !- Y Origin {m}
    0.0,                     !- Z Origin {m}
    ,                        !- Type
    1;                       !- Multiplier

Zone,
    APTO02_P4,               !- Name
    0.0,                     !- Direction of Relative North {deg}
    0.0,                     !- X Origin {m}
    0.0,                     !- Y Origin {m}
    0.0,                     !- Z Origin {m}
    ,                        !- Type
    1;                       !- Multiplier

Zone,
    APTO04_P4,               !- Name
    0.0,                     !- Direction of Relative North {deg}
    0.0,                     !- X Origin {m}
    0.0,                     !- Y Origin {m}
    0.0,                     !- Z Origin {m}
    ,                        !- Type
    1;                       !- Multiplier

Zone,
    APTO03_P5,               !- Name
    0.0,                     !- Direction of Relative North {deg}
    0.0,                     !- X Origin {m}
    0.0,                     !- Y Origin {m}
    0.0,                     !- Z Origin {m}
    ,                        !- Type
    1;                       !- Multiplier

Zone,
    APTO04_P5,               !- Name
    0.0,                     !- Direction of Relative North {deg}
    0.0,                     !- X Origin {m}
    0.0,                     !- Y Origin {m}
    0.0,                     !- Z Origin {m}
    ,                        !- Type
    1;                       !- Multiplier

Zone,
    APTO01_P5,               !- Name
    0.0,                     !- Direction of Relative North {deg}
    0.0,                     !- X Origin {m}
    0.0,                     !- Y Origin {m}
    0.0,                     !- Z Origin {m}
    ,                        !- Type
    1;                       !- Multiplier

Zone,
    APTO02_P5,               !- Name
    0.0,                     !- Direction of Relative North {deg}
    0.0,                     !- X Origin {m}
    0.0,                     !- Y Origin {m}
    0.0,                     !- Z Origin {m}
    ,                        !- Type
    1;                       !- Multiplier


!-   ===========  ALL OBJECTS IN CLASS: ZONELIST ===========

ZoneList,
    TodosAps,                !- Name
    APTO01_P1,               !- Zone 1 Name
    APTO01_P2,               !- Zone 2 Name
    APTO01_P3,               !- Zone 3 Name
    APTO01_P4,               !- Zone 4 Name
    APTO01_P5,               !- Zone 5 Name
    APTO02_P1,               !- Zone 6 Name
    APTO02_P2,               !- Zone 7 Name
    APTO02_P3,               !- Zone 8 Name
    APTO02_P4,               !- Zone 9 Name
    APTO02_P5,               !- Zone 10 Name
    APTO03_P1,               !- Zone 11 Name
    APTO03_P2,               !- Zone 12 Name
    APTO03_P3,               !- Zone 13 Name
    APTO03_P4,               !- Zone 14 Name
    APTO03_P5,               !- Zone 15 Name
    APTO04_P1,               !- Zone 16 Name
    APTO04_P2,               !- Zone 17 Name
    APTO04_P3,               !- Zone 18 Name
    APTO04_P4,               !- Zone 19 Name
    APTO04_P5;               !- Zone 20 Name


!-   ===========  ALL OBJECTS IN CLASS: BUILDINGSURFACE:DETAILED ===========

BuildingSurface:Detailed,
    2E73EC,                  !- Name
    Floor,                   !- Surface Type
    Exterior Floor,          !- Construction Name
    APTO02_P1,               !- Zone Name
    Ground,                  !- Outside Boundary Condition
    ,                        !- Outside Boundary Condition Object
    NoSun,                   !- Sun Exposure
    NoWind,                  !- Wind Exposure
    ,                        !- View Factor to Ground
    8,                       !- Number of Vertices
    5.800000000000,          !- Vertex 1 X-coordinate {m}
    6.750000000000,          !- Vertex 1 Y-coordinate {m}
    0.000000000000,          !- Vertex 1 Z-coordinate {m}
    5.800000000000,          !- Vertex 2 X-coordinate {m}
    3.600000000000,          !- Vertex 2 Y-coordinate {m}
    0.000000000000,          !- Vertex 2 Z-coordinate {m}
    7.450000000000,          !- Vertex 3 X-coordinate {m}
    3.600000000000,          !- Vertex 3 Y-coordinate {m}
    0.000000000000,          !- Vertex 3 Z-coordinate {m}
    7.450000000000,          !- Vertex 4 X-coordinate {m}
    0.000000000000,          !- Vertex 4 Y-coordinate {m}
    0.000000000000,          !- Vertex 4 Z-coordinate {m}
    1.350000000000,          !- Vertex 5 X-coordinate {m}
    0.000000000000,          !- Vertex 5 Y-coordinate {m}
    0.000000000000,          !- Vertex 5 Z-coordinate {m}
    1.350000000000,          !- Vertex 6 X-coordinate {m}
    0.950000000000,          !- Vertex 6 Y-coordinate {m}
    0.000000000000,          !- Vertex 6 Z-coordinate {m}
    0.000000000000,          !- Vertex 7 X-coordinate {m}
    0.950000000000,          !- Vertex 7 Y-coordinate {m}
    0.000000000000,          !- Vertex 7 Z-coordinate {m}
    0.000000000000,          !- Vertex 8 X-coordinate {m}
    6.750000000000,          !- Vertex 8 Y-coordinate {m}
    0.000000000000;          !- Vertex 8 Z-coordinate {m}

BuildingSurface:Detailed,
    D80DBE,                  !- Name
    Wall,                    !- Surface Type
    Exterior Wall West,      !- Construction Name
    APTO02_P1,               !- Zone Name
    Outdoors,                !- Outside Boundary Condition
    ,                        !- Outside Boundary Condition Object
    SunExposed,              !- Sun Exposure
    WindExposed,             !- Wind Exposure
    ,                        !- View Factor to Ground
    4,                       !- Number of Vertices
    0.000000000000,          !- Vertex 1 X-coordinate {m}
    6.750000000000,          !- Vertex 1 Y-coordinate {m}
    2.850000000000,          !- Vertex 1 Z-coordinate {m}
    0.000000000000,          !- Vertex 2 X-coordinate {m}
    6.750000000000,          !- Vertex 2 Y-coordinate {m}
    0.000000000000,          !- Vertex 2 Z-coordinate {m}
    0.000000000000,          !- Vertex 3 X-coordinate {m}
    0.950000000000,          !- Vertex 3 Y-coordinate {m}
    0.000000000000,          !- Vertex 3 Z-coordinate {m}
    0.000000000000,          !- Vertex 4 X-coordinate {m}
    0.950000000000,          !- Vertex 4 Y-coordinate {m}
    2.850000000000;          !- Vertex 4 Z-coordinate {m}

BuildingSurface:Detailed,
    D0C134,                  !- Name
    Wall,                    !- Surface Type
    Exterior Wall South,     !- Construction Name
    APTO02_P1,               !- Zone Name
    Outdoors,                !- Outside Boundary Condition
    ,                        !- Outside Boundary Condition Object
    SunExposed,              !- Sun Exposure
    WindExposed,             !- Wind Exposure
    ,                        !- View Factor to Ground
    4,                       !- Number of Vertices
    0.000000000000,          !- Vertex 1 X-coordinate {m}
    0.950000000000,          !- Vertex 1 Y-coordinate {m}
    2.850000000000,          !- Vertex 1 Z-coordinate {m}
    0.000000000000,          !- Vertex 2 X-coordinate {m}
    0.950000000000,          !- Vertex 2 Y-coordinate {m}
    0.000000000000,          !- Vertex 2 Z-coordinate {m}
    1.350000000000,          !- Vertex 3 X-coordinate {m}
    0.950000000000,          !- Vertex 3 Y-coordinate {m}
    0.000000000000,          !- Vertex 3 Z-coordinate {m}
    1.350000000000,          !- Vertex 4 X-coordinate {m}
    0.950000000000,          !- Vertex 4 Y-coordinate {m}
    2.850000000000;          !- Vertex 4 Z-coordinate {m}

BuildingSurface:Detailed,
    5EB753,                  !- Name
    Wall,                    !- Surface Type
    Interior Wall,           !- Construction Name
    APTO02_P1,               !- Zone Name
    Surface,                 !- Outside Boundary Condition
    13F810,                  !- Outside Boundary Condition Object
    NoSun,                   !- Sun Exposure
    NoWind,                  !- Wind Exposure
    ,                        !- View Factor to Ground
    4,                       !- Number of Vertices
    7.450000000000,          !- Vertex 1 X-coordinate {m}
    0.000000000000,          !- Vertex 1 Y-coordinate {m}
    2.850000000000,          !- Vertex 1 Z-coordinate {m}
    7.450000000000,          !- Vertex 2 X-coordinate {m}
    0.000000000000,          !- Vertex 2 Y-coordinate {m}
    0.000000000000,          !- Vertex 2 Z-coordinate {m}
    7.450000000000,          !- Vertex 3 X-coordinate {m}
    3.600000000000,          !- Vertex 3 Y-coordinate {m}
    0.000000000000,          !- Vertex 3 Z-coordinate {m}
    7.450000000000,          !- Vertex 4 X-coordinate {m}
    3.600000000000,          !- Vertex 4 Y-coordinate {m}
    2.850000000000;          !- Vertex 4 Z-coordinate {m}

BuildingSurface:Detailed,
    DBBD81,                  !- Name
    Wall,                    !- Surface Type
    Exterior Wall East,      !- Construction Name
    APTO02_P1,               !- Zone Name
    Outdoors,                !- Outside Boundary Condition
    ,                        !- Outside Boundary Condition Object
    SunExposed,              !- Sun Exposure
    WindExposed,             !- Wind Exposure
    ,                        !- View Factor to Ground
    4,                       !- Number of Vertices
    5.800000000000,          !- Vertex 1 X-coordinate {m}
    3.600000000000,          !- Vertex 1 Y-coordinate {m}
    2.850000000000,          !- Vertex 1 Z-coordinate {m}
    5.800000000000,          !- Vertex 2 X-coordinate {m}
    3.600000000000,          !- Vertex 2 Y-coordinate {m}
    0.000000000000,          !- Vertex 2 Z-coordinate {m}
    5.800000000000,          !- Vertex 3 X-coordinate {m}
    6.750000000000,          !- Vertex 3 Y-coordinate {m}
    0.000000000000,          !- Vertex 3 Z-coordinate {m}
    5.800000000000,          !- Vertex 4 X-coordinate {m}
    6.750000000000,          !- Vertex 4 Y-coordinate {m}
    2.850000000000;          !- Vertex 4 Z-coordinate {m}

BuildingSurface:Detailed,
    80036F,                  !- Name
    Wall,                    !- Surface Type
    Exterior Wall North,     !- Construction Name
    APTO02_P1,               !- Zone Name
    Outdoors,                !- Outside Boundary Condition
    ,                        !- Outside Boundary Condition Object
    SunExposed,              !- Sun Exposure
    WindExposed,             !- Wind Exposure
    ,                        !- View Factor to Ground
    4,                       !- Number of Vertices
    7.450000000000,          !- Vertex 1 X-coordinate {m}
    3.600000000000,          !- Vertex 1 Y-coordinate {m}
    2.850000000000,          !- Vertex 1 Z-coordinate {m}
    7.450000000000,          !- Vertex 2 X-coordinate {m}
    3.600000000000,          !- Vertex 2 Y-coordinate {m}
    0.000000000000,          !- Vertex 2 Z-coordinate {m}
    5.800000000000,          !- Vertex 3 X-coordinate {m}
    3.600000000000,          !- Vertex 3 Y-coordinate {m}
    0.000000000000,          !- Vertex 3 Z-coordinate {m}
    5.800000000000,          !- Vertex 4 X-coordinate {m}
    3.600000000000,          !- Vertex 4 Y-coordinate {m}
    2.850000000000;          !- Vertex 4 Z-coordinate {m}

BuildingSurface:Detailed,
    D9998B,                  !- Name
    Wall,                    !- Surface Type
    Exterior Wall West,      !- Construction Name
    APTO02_P1,               !- Zone Name
    Outdoors,                !- Outside Boundary Condition
    ,                        !- Outside Boundary Condition Object
    SunExposed,              !- Sun Exposure
    WindExposed,             !- Wind Exposure
    ,                        !- View Factor to Ground
    4,                       !- Number of Vertices
    1.350000000000,          !- Vertex 1 X-coordinate {m}
    0.950000000000,          !- Vertex 1 Y-coordinate {m}
    2.850000000000,          !- Vertex 1 Z-coordinate {m}
    1.350000000000,          !- Vertex 2 X-coordinate {m}
    0.950000000000,          !- Vertex 2 Y-coordinate {m}
    0.000000000000,          !- Vertex 2 Z-coordinate {m}
    1.350000000000,          !- Vertex 3 X-coordinate {m}
    0.000000000000,          !- Vertex 3 Y-coordinate {m}
    0.000000000000,          !- Vertex 3 Z-coordinate {m}
    1.350000000000,          !- Vertex 4 X-coordinate {m}
    0.000000000000,          !- Vertex 4 Y-coordinate {m}
    2.850000000000;          !- Vertex 4 Z-coordinate {m}

BuildingSurface:Detailed,
    AC29BB,                  !- Name
    Wall,                    !- Surface Type
    Exterior Wall North,     !- Construction Name
    APTO02_P1,               !- Zone Name
    Outdoors,                !- Outside Boundary Condition
    ,                        !- Outside Boundary Condition Object
    SunExposed,              !- Sun Exposure
    WindExposed,             !- Wind Exposure
    ,                        !- View Factor to Ground
    4,                       !- Number of Vertices
    5.800000000000,          !- Vertex 1 X-coordinate {m}
    6.750000000000,          !- Vertex 1 Y-coordinate {m}
    2.850000000000,          !- Vertex 1 Z-coordinate {m}
    5.800000000000,          !- Vertex 2 X-coordinate {m}
    6.750000000000,          !- Vertex 2 Y-coordinate {m}
    0.000000000000,          !- Vertex 2 Z-coordinate {m}
    0.000000000000,          !- Vertex 3 X-coordinate {m}
    6.750000000000,          !- Vertex 3 Y-coordinate {m}
    0.000000000000,          !- Vertex 3 Z-coordinate {m}
    0.000000000000,          !- Vertex 4 X-coordinate {m}
    6.750000000000,          !- Vertex 4 Y-coordinate {m}
    2.850000000000;          !- Vertex 4 Z-coordinate {m}

BuildingSurface:Detailed,
    13DC9E,                  !- Name
    Wall,                    !- Surface Type
    Interior Wall,           !- Construction Name
    APTO02_P1,               !- Zone Name
    Surface,                 !- Outside Boundary Condition
    F46237,                  !- Outside Boundary Condition Object
    NoSun,                   !- Sun Exposure
    NoWind,                  !- Wind Exposure
    ,                        !- View Factor to Ground
    4,                       !- Number of Vertices
    1.350000000000,          !- Vertex 1 X-coordinate {m}
    0.000000000000,          !- Vertex 1 Y-coordinate {m}
    2.850000000000,          !- Vertex 1 Z-coordinate {m}
    1.350000000000,          !- Vertex 2 X-coordinate {m}
    0.000000000000,          !- Vertex 2 Y-coordinate {m}
    0.000000000000,          !- Vertex 2 Z-coordinate {m}
    7.450000000000,          !- Vertex 3 X-coordinate {m}
    0.000000000000,          !- Vertex 3 Y-coordinate {m}
    0.000000000000,          !- Vertex 3 Z-coordinate {m}
    7.450000000000,          !- Vertex 4 X-coordinate {m}
    0.000000000000,          !- Vertex 4 Y-coordinate {m}
    2.850000000000;          !- Vertex 4 Z-coordinate {m}

BuildingSurface:Detailed,
    A1838E,                  !- Name
    Ceiling,                 !- Surface Type
    Interior Ceiling,        !- Construction Name
    APTO02_P1,               !- Zone Name
    Surface,                 !- Outside Boundary Condition
    7DBA1F,                  !- Outside Boundary Condition Object
    NoSun,                   !- Sun Exposure
    NoWind,                  !- Wind Exposure
    ,                        !- View Factor to Ground
    8,                       !- Number of Vertices
    0.000000000000,          !- Vertex 1 X-coordinate {m}
    6.750000000000,          !- Vertex 1 Y-coordinate {m}
    2.850000000000,          !- Vertex 1 Z-coordinate {m}
    0.000000000000,          !- Vertex 2 X-coordinate {m}
    0.950000000000,          !- Vertex 2 Y-coordinate {m}
    2.850000000000,          !- Vertex 2 Z-coordinate {m}
    1.350000000000,          !- Vertex 3 X-coordinate {m}
    0.950000000000,          !- Vertex 3 Y-coordinate {m}
    2.850000000000,          !- Vertex 3 Z-coordinate {m}
    1.350000000000,          !- Vertex 4 X-coordinate {m}
    0.000000000000,          !- Vertex 4 Y-coordinate {m}
    2.850000000000,          !- Vertex 4 Z-coordinate {m}
    7.450000000000,          !- Vertex 5 X-coordinate {m}
    0.000000000000,          !- Vertex 5 Y-coordinate {m}
    2.850000000000,          !- Vertex 5 Z-coordinate {m}
    7.450000000000,          !- Vertex 6 X-coordinate {m}
    3.600000000000,          !- Vertex 6 Y-coordinate {m}
    2.850000000000,          !- Vertex 6 Z-coordinate {m}
    5.800000000000,          !- Vertex 7 X-coordinate {m}
    3.600000000000,          !- Vertex 7 Y-coordinate {m}
    2.850000000000,          !- Vertex 7 Z-coordinate {m}
    5.800000000000,          !- Vertex 8 X-coordinate {m}
    6.750000000000,          !- Vertex 8 Y-coordinate {m}
    2.850000000000;          !- Vertex 8 Z-coordinate {m}

BuildingSurface:Detailed,
    68B812,                  !- Name
    Floor,                   !- Surface Type
    Exterior Floor,          !- Construction Name
    APTO01_P1,               !- Zone Name
    Ground,                  !- Outside Boundary Condition
    ,                        !- Outside Boundary Condition Object
    NoSun,                   !- Sun Exposure
    NoWind,                  !- Wind Exposure
    ,                        !- View Factor to Ground
    8,                       !- Number of Vertices
    7.450000000000,          !- Vertex 1 X-coordinate {m}
    0.000000000000,          !- Vertex 1 Y-coordinate {m}
    0.000000000000,          !- Vertex 1 Z-coordinate {m}
    7.450000000000,          !- Vertex 2 X-coordinate {m}
    -3.600000000000,         !- Vertex 2 Y-coordinate {m}
    0.000000000000,          !- Vertex 2 Z-coordinate {m}
    5.800000000000,          !- Vertex 3 X-coordinate {m}
    -3.600000000000,         !- Vertex 3 Y-coordinate {m}
    0.000000000000,          !- Vertex 3 Z-coordinate {m}
    5.800000000000,          !- Vertex 4 X-coordinate {m}
    -6.750000000000,         !- Vertex 4 Y-coordinate {m}
    0.000000000000,          !- Vertex 4 Z-coordinate {m}
    0.000000000000,          !- Vertex 5 X-coordinate {m}
    -6.750000000000,         !- Vertex 5 Y-coordinate {m}
    0.000000000000,          !- Vertex 5 Z-coordinate {m}
    0.000000000000,          !- Vertex 6 X-coordinate {m}
    -0.950000000000,         !- Vertex 6 Y-coordinate {m}
    0.000000000000,          !- Vertex 6 Z-coordinate {m}
    1.350000000000,          !- Vertex 7 X-coordinate {m}
    -0.950000000000,         !- Vertex 7 Y-coordinate {m}
    0.000000000000,          !- Vertex 7 Z-coordinate {m}
    1.350000000000,          !- Vertex 8 X-coordinate {m}
    0.000000000000,          !- Vertex 8 Y-coordinate {m}
    0.000000000000;          !- Vertex 8 Z-coordinate {m}

BuildingSurface:Detailed,
    F46237,                  !- Name
    Wall,                    !- Surface Type
    Interior Wall,           !- Construction Name
    APTO01_P1,               !- Zone Name
    Surface,                 !- Outside Boundary Condition
    13DC9E,                  !- Outside Boundary Condition Object
    NoSun,                   !- Sun Exposure
    NoWind,                  !- Wind Exposure
    ,                        !- View Factor to Ground
    4,                       !- Number of Vertices
    7.450000000000,          !- Vertex 1 X-coordinate {m}
    0.000000000000,          !- Vertex 1 Y-coordinate {m}
    2.850000000000,          !- Vertex 1 Z-coordinate {m}
    7.450000000000,          !- Vertex 2 X-coordinate {m}
    0.000000000000,          !- Vertex 2 Y-coordinate {m}
    0.000000000000,          !- Vertex 2 Z-coordinate {m}
    1.350000000000,          !- Vertex 3 X-coordinate {m}
    0.000000000000,          !- Vertex 3 Y-coordinate {m}
    0.000000000000,          !- Vertex 3 Z-coordinate {m}
    1.350000000000,          !- Vertex 4 X-coordinate {m}
    0.000000000000,          !- Vertex 4 Y-coordinate {m}
    2.850000000000;          !- Vertex 4 Z-coordinate {m}

BuildingSurface:Detailed,
    357850,                  !- Name
    Wall,                    !- Surface Type
    Exterior Wall West,      !- Construction Name
    APTO01_P1,               !- Zone Name
    Outdoors,                !- Outside Boundary Condition
    ,                        !- Outside Boundary Condition Object
    SunExposed,              !- Sun Exposure
    WindExposed,             !- Wind Exposure
    ,                        !- View Factor to Ground
    4,                       !- Number of Vertices
    1.350000000000,          !- Vertex 1 X-coordinate {m}
    0.000000000000,          !- Vertex 1 Y-coordinate {m}
    2.850000000000,          !- Vertex 1 Z-coordinate {m}
    1.350000000000,          !- Vertex 2 X-coordinate {m}
    0.000000000000,          !- Vertex 2 Y-coordinate {m}
    0.000000000000,          !- Vertex 2 Z-coordinate {m}
    1.350000000000,          !- Vertex 3 X-coordinate {m}
    -0.950000000000,         !- Vertex 3 Y-coordinate {m}
    0.000000000000,          !- Vertex 3 Z-coordinate {m}
    1.350000000000,          !- Vertex 4 X-coordinate {m}
    -0.950000000000,         !- Vertex 4 Y-coordinate {m}
    2.850000000000;          !- Vertex 4 Z-coordinate {m}

BuildingSurface:Detailed,
    B8BCB4,                  !- Name
    Wall,                    !- Surface Type
    Exterior Wall West,      !- Construction Name
    APTO01_P1,               !- Zone Name
    Outdoors,                !- Outside Boundary Condition
    ,                        !- Outside Boundary Condition Object
    SunExposed,              !- Sun Exposure
    WindExposed,             !- Wind Exposure
    ,                        !- View Factor to Ground
    4,                       !- Number of Vertices
    0.000000000000,          !- Vertex 1 X-coordinate {m}
    -0.950000000000,         !- Vertex 1 Y-coordinate {m}
    2.850000000000,          !- Vertex 1 Z-coordinate {m}
    0.000000000000,          !- Vertex 2 X-coordinate {m}
    -0.950000000000,         !- Vertex 2 Y-coordinate {m}
    0.000000000000,          !- Vertex 2 Z-coordinate {m}
    0.000000000000,          !- Vertex 3 X-coordinate {m}
    -6.750000000000,         !- Vertex 3 Y-coordinate {m}
    0.000000000000,          !- Vertex 3 Z-coordinate {m}
    0.000000000000,          !- Vertex 4 X-coordinate {m}
    -6.750000000000,         !- Vertex 4 Y-coordinate {m}
    2.850000000000;          !- Vertex 4 Z-coordinate {m}

BuildingSurface:Detailed,
    21A2D4,                  !- Name
    Ceiling,                 !- Surface Type
    Interior Ceiling,        !- Construction Name
    APTO01_P1,               !- Zone Name
    Surface,                 !- Outside Boundary Condition
    9F1A06,                  !- Outside Boundary Condition Object
    NoSun,                   !- Sun Exposure
    NoWind,                  !- Wind Exposure
    ,                        !- View Factor to Ground
    8,                       !- Number of Vertices
    0.000000000000,          !- Vertex 1 X-coordinate {m}
    -0.950000000000,         !- Vertex 1 Y-coordinate {m}
    2.850000000000,          !- Vertex 1 Z-coordinate {m}
    0.000000000000,          !- Vertex 2 X-coordinate {m}
    -6.750000000000,         !- Vertex 2 Y-coordinate {m}
    2.850000000000,          !- Vertex 2 Z-coordinate {m}
    5.800000000000,          !- Vertex 3 X-coordinate {m}
    -6.750000000000,         !- Vertex 3 Y-coordinate {m}
    2.850000000000,          !- Vertex 3 Z-coordinate {m}
    5.800000000000,          !- Vertex 4 X-coordinate {m}
    -3.600000000000,         !- Vertex 4 Y-coordinate {m}
    2.850000000000,          !- Vertex 4 Z-coordinate {m}
    7.450000000000,          !- Vertex 5 X-coordinate {m}
    -3.600000000000,         !- Vertex 5 Y-coordinate {m}
    2.850000000000,          !- Vertex 5 Z-coordinate {m}
    7.450000000000,          !- Vertex 6 X-coordinate {m}
    0.000000000000,          !- Vertex 6 Y-coordinate {m}
    2.850000000000,          !- Vertex 6 Z-coordinate {m}
    1.350000000000,          !- Vertex 7 X-coordinate {m}
    0.000000000000,          !- Vertex 7 Y-coordinate {m}
    2.850000000000,          !- Vertex 7 Z-coordinate {m}
    1.350000000000,          !- Vertex 8 X-coordinate {m}
    -0.950000000000,         !- Vertex 8 Y-coordinate {m}
    2.850000000000;          !- Vertex 8 Z-coordinate {m}

BuildingSurface:Detailed,
    79F336,                  !- Name
    Wall,                    !- Surface Type
    Exterior Wall North,     !- Construction Name
    APTO01_P1,               !- Zone Name
    Outdoors,                !- Outside Boundary Condition
    ,                        !- Outside Boundary Condition Object
    SunExposed,              !- Sun Exposure
    WindExposed,             !- Wind Exposure
    ,                        !- View Factor to Ground
    4,                       !- Number of Vertices
    1.350000000000,          !- Vertex 1 X-coordinate {m}
    -0.950000000000,         !- Vertex 1 Y-coordinate {m}
    2.850000000000,          !- Vertex 1 Z-coordinate {m}
    1.350000000000,          !- Vertex 2 X-coordinate {m}
    -0.950000000000,         !- Vertex 2 Y-coordinate {m}
    0.000000000000,          !- Vertex 2 Z-coordinate {m}
    0.000000000000,          !- Vertex 3 X-coordinate {m}
    -0.950000000000,         !- Vertex 3 Y-coordinate {m}
    0.000000000000,          !- Vertex 3 Z-coordinate {m}
    0.000000000000,          !- Vertex 4 X-coordinate {m}
    -0.950000000000,         !- Vertex 4 Y-coordinate {m}
    2.850000000000;          !- Vertex 4 Z-coordinate {m}

BuildingSurface:Detailed,
    56DE11,                  !- Name
    Wall,                    !- Surface Type
    Interior Wall,           !- Construction Name
    APTO01_P1,               !- Zone Name
    Surface,                 !- Outside Boundary Condition
    38F7D5,                  !- Outside Boundary Condition Object
    NoSun,                   !- Sun Exposure
    NoWind,                  !- Wind Exposure
    ,                        !- View Factor to Ground
    4,                       !- Number of Vertices
    7.450000000000,          !- Vertex 1 X-coordinate {m}
    -3.600000000000,         !- Vertex 1 Y-coordinate {m}
    2.850000000000,          !- Vertex 1 Z-coordinate {m}
    7.450000000000,          !- Vertex 2 X-coordinate {m}
    -3.600000000000,         !- Vertex 2 Y-coordinate {m}
    0.000000000000,          !- Vertex 2 Z-coordinate {m}
    7.450000000000,          !- Vertex 3 X-coordinate {m}
    0.000000000000,          !- Vertex 3 Y-coordinate {m}
    0.000000000000,          !- Vertex 3 Z-coordinate {m}
    7.450000000000,          !- Vertex 4 X-coordinate {m}
    0.000000000000,          !- Vertex 4 Y-coordinate {m}
    2.850000000000;          !- Vertex 4 Z-coordinate {m}

BuildingSurface:Detailed,
    107503,                  !- Name
    Wall,                    !- Surface Type
    Exterior Wall South,     !- Construction Name
    APTO01_P1,               !- Zone Name
    Outdoors,                !- Outside Boundary Condition
    ,                        !- Outside Boundary Condition Object
    SunExposed,              !- Sun Exposure
    WindExposed,             !- Wind Exposure
    ,                        !- View Factor to Ground
    4,                       !- Number of Vertices
    0.000000000000,          !- Vertex 1 X-coordinate {m}
    -6.750000000000,         !- Vertex 1 Y-coordinate {m}
    2.850000000000,          !- Vertex 1 Z-coordinate {m}
    0.000000000000,          !- Vertex 2 X-coordinate {m}
    -6.750000000000,         !- Vertex 2 Y-coordinate {m}
    0.000000000000,          !- Vertex 2 Z-coordinate {m}
    5.800000000000,          !- Vertex 3 X-coordinate {m}
    -6.750000000000,         !- Vertex 3 Y-coordinate {m}
    0.000000000000,          !- Vertex 3 Z-coordinate {m}
    5.800000000000,          !- Vertex 4 X-coordinate {m}
    -6.750000000000,         !- Vertex 4 Y-coordinate {m}
    2.850000000000;          !- Vertex 4 Z-coordinate {m}

BuildingSurface:Detailed,
    9FC1B5,                  !- Name
    Wall,                    !- Surface Type
    Exterior Wall East,      !- Construction Name
    APTO01_P1,               !- Zone Name
    Outdoors,                !- Outside Boundary Condition
    ,                        !- Outside Boundary Condition Object
    SunExposed,              !- Sun Exposure
    WindExposed,             !- Wind Exposure
    ,                        !- View Factor to Ground
    4,                       !- Number of Vertices
    5.800000000000,          !- Vertex 1 X-coordinate {m}
    -6.750000000000,         !- Vertex 1 Y-coordinate {m}
    2.850000000000,          !- Vertex 1 Z-coordinate {m}
    5.800000000000,          !- Vertex 2 X-coordinate {m}
    -6.750000000000,         !- Vertex 2 Y-coordinate {m}
    0.000000000000,          !- Vertex 2 Z-coordinate {m}
    5.800000000000,          !- Vertex 3 X-coordinate {m}
    -3.600000000000,         !- Vertex 3 Y-coordinate {m}
    0.000000000000,          !- Vertex 3 Z-coordinate {m}
    5.800000000000,          !- Vertex 4 X-coordinate {m}
    -3.600000000000,         !- Vertex 4 Y-coordinate {m}
    2.850000000000;          !- Vertex 4 Z-coordinate {m}

BuildingSurface:Detailed,
    321E96,                  !- Name
    Wall,                    !- Surface Type
    Exterior Wall South,     !- Construction Name
    APTO01_P1,               !- Zone Name
    Outdoors,                !- Outside Boundary Condition
    ,                        !- Outside Boundary Condition Object
    SunExposed,              !- Sun Exposure
    WindExposed,             !- Wind Exposure
    ,                        !- View Factor to Ground
    4,                       !- Number of Vertices
    5.800000000000,          !- Vertex 1 X-coordinate {m}
    -3.600000000000,         !- Vertex 1 Y-coordinate {m}
    2.850000000000,          !- Vertex 1 Z-coordinate {m}
    5.800000000000,          !- Vertex 2 X-coordinate {m}
    -3.600000000000,         !- Vertex 2 Y-coordinate {m}
    0.000000000000,          !- Vertex 2 Z-coordinate {m}
    7.450000000000,          !- Vertex 3 X-coordinate {m}
    -3.600000000000,         !- Vertex 3 Y-coordinate {m}
    0.000000000000,          !- Vertex 3 Z-coordinate {m}
    7.450000000000,          !- Vertex 4 X-coordinate {m}
    -3.600000000000,         !- Vertex 4 Y-coordinate {m}
    2.850000000000;          !- Vertex 4 Z-coordinate {m}

BuildingSurface:Detailed,
    608999,                  !- Name
    Floor,                   !- Surface Type
    Exterior Floor,          !- Construction Name
    APTO03_P1,               !- Zone Name
    Ground,                  !- Outside Boundary Condition
    ,                        !- Outside Boundary Condition Object
    NoSun,                   !- Sun Exposure
    NoWind,                  !- Wind Exposure
    ,                        !- View Factor to Ground
    8,                       !- Number of Vertices
    17.150000000000,         !- Vertex 1 X-coordinate {m}
    6.750000000000,          !- Vertex 1 Y-coordinate {m}
    0.000000000000,          !- Vertex 1 Z-coordinate {m}
    17.150000000000,         !- Vertex 2 X-coordinate {m}
    0.950000000000,          !- Vertex 2 Y-coordinate {m}
    0.000000000000,          !- Vertex 2 Z-coordinate {m}
    15.800000000000,         !- Vertex 3 X-coordinate {m}
    0.950000000000,          !- Vertex 3 Y-coordinate {m}
    0.000000000000,          !- Vertex 3 Z-coordinate {m}
    15.800000000000,         !- Vertex 4 X-coordinate {m}
    0.000000000000,          !- Vertex 4 Y-coordinate {m}
    0.000000000000,          !- Vertex 4 Z-coordinate {m}
    9.700000000000,          !- Vertex 5 X-coordinate {m}
    0.000000000000,          !- Vertex 5 Y-coordinate {m}
    0.000000000000,          !- Vertex 5 Z-coordinate {m}
    9.700000000000,          !- Vertex 6 X-coordinate {m}
    3.600000000000,          !- Vertex 6 Y-coordinate {m}
    0.000000000000,          !- Vertex 6 Z-coordinate {m}
    11.350000000000,         !- Vertex 7 X-coordinate {m}
    3.600000000000,          !- Vertex 7 Y-coordinate {m}
    0.000000000000,          !- Vertex 7 Z-coordinate {m}
    11.350000000000,         !- Vertex 8 X-coordinate {m}
    6.750000000000,          !- Vertex 8 Y-coordinate {m}
    0.000000000000;          !- Vertex 8 Z-coordinate {m}

BuildingSurface:Detailed,
    433A49,                  !- Name
    Ceiling,                 !- Surface Type
    Interior Ceiling,        !- Construction Name
    APTO03_P1,               !- Zone Name
    Surface,                 !- Outside Boundary Condition
    42BF26,                  !- Outside Boundary Condition Object
    NoSun,                   !- Sun Exposure
    NoWind,                  !- Wind Exposure
    ,                        !- View Factor to Ground
    8,                       !- Number of Vertices
    11.350000000000,         !- Vertex 1 X-coordinate {m}
    6.750000000000,          !- Vertex 1 Y-coordinate {m}
    2.850000000000,          !- Vertex 1 Z-coordinate {m}
    11.350000000000,         !- Vertex 2 X-coordinate {m}
    3.600000000000,          !- Vertex 2 Y-coordinate {m}
    2.850000000000,          !- Vertex 2 Z-coordinate {m}
    9.700000000000,          !- Vertex 3 X-coordinate {m}
    3.600000000000,          !- Vertex 3 Y-coordinate {m}
    2.850000000000,          !- Vertex 3 Z-coordinate {m}
    9.700000000000,          !- Vertex 4 X-coordinate {m}
    0.000000000000,          !- Vertex 4 Y-coordinate {m}
    2.850000000000,          !- Vertex 4 Z-coordinate {m}
    15.800000000000,         !- Vertex 5 X-coordinate {m}
    0.000000000000,          !- Vertex 5 Y-coordinate {m}
    2.850000000000,          !- Vertex 5 Z-coordinate {m}
    15.800000000000,         !- Vertex 6 X-coordinate {m}
    0.950000000000,          !- Vertex 6 Y-coordinate {m}
    2.850000000000,          !- Vertex 6 Z-coordinate {m}
    17.150000000000,         !- Vertex 7 X-coordinate {m}
    0.950000000000,          !- Vertex 7 Y-coordinate {m}
    2.850000000000,          !- Vertex 7 Z-coordinate {m}
    17.150000000000,         !- Vertex 8 X-coordinate {m}
    6.750000000000,          !- Vertex 8 Y-coordinate {m}
    2.850000000000;          !- Vertex 8 Z-coordinate {m}

BuildingSurface:Detailed,
    65AC26,                  !- Name
    Wall,                    !- Surface Type
    Interior Wall,           !- Construction Name
    APTO03_P1,               !- Zone Name
    Surface,                 !- Outside Boundary Condition
    2B027A,                  !- Outside Boundary Condition Object
    NoSun,                   !- Sun Exposure
    NoWind,                  !- Wind Exposure
    ,                        !- View Factor to Ground
    4,                       !- Number of Vertices
    9.700000000000,          !- Vertex 1 X-coordinate {m}
    3.600000000000,          !- Vertex 1 Y-coordinate {m}
    2.850000000000,          !- Vertex 1 Z-coordinate {m}
    9.700000000000,          !- Vertex 2 X-coordinate {m}
    3.600000000000,          !- Vertex 2 Y-coordinate {m}
    0.000000000000,          !- Vertex 2 Z-coordinate {m}
    9.700000000000,          !- Vertex 3 X-coordinate {m}
    0.000000000000,          !- Vertex 3 Y-coordinate {m}
    0.000000000000,          !- Vertex 3 Z-coordinate {m}
    9.700000000000,          !- Vertex 4 X-coordinate {m}
    0.000000000000,          !- Vertex 4 Y-coordinate {m}
    2.850000000000;          !- Vertex 4 Z-coordinate {m}

BuildingSurface:Detailed,
    AC4F9B,                  !- Name
    Wall,                    !- Surface Type
    Exterior Wall North,     !- Construction Name
    APTO03_P1,               !- Zone Name
    Outdoors,                !- Outside Boundary Condition
    ,                        !- Outside Boundary Condition Object
    SunExposed,              !- Sun Exposure
    WindExposed,             !- Wind Exposure
    ,                        !- View Factor to Ground
    4,                       !- Number of Vertices
    11.350000000000,         !- Vertex 1 X-coordinate {m}
    3.600000000000,          !- Vertex 1 Y-coordinate {m}
    2.850000000000,          !- Vertex 1 Z-coordinate {m}
    11.350000000000,         !- Vertex 2 X-coordinate {m}
    3.600000000000,          !- Vertex 2 Y-coordinate {m}
    0.000000000000,          !- Vertex 2 Z-coordinate {m}
    9.700000000000,          !- Vertex 3 X-coordinate {m}
    3.600000000000,          !- Vertex 3 Y-coordinate {m}
    0.000000000000,          !- Vertex 3 Z-coordinate {m}
    9.700000000000,          !- Vertex 4 X-coordinate {m}
    3.600000000000,          !- Vertex 4 Y-coordinate {m}
    2.850000000000;          !- Vertex 4 Z-coordinate {m}

BuildingSurface:Detailed,
    780D9E,                  !- Name
    Wall,                    !- Surface Type
    Exterior Wall West,      !- Construction Name
    APTO03_P1,               !- Zone Name
    Outdoors,                !- Outside Boundary Condition
    ,                        !- Outside Boundary Condition Object
    SunExposed,              !- Sun Exposure
    WindExposed,             !- Wind Exposure
    ,                        !- View Factor to Ground
    4,                       !- Number of Vertices
    11.350000000000,         !- Vertex 1 X-coordinate {m}
    6.750000000000,          !- Vertex 1 Y-coordinate {m}
    2.850000000000,          !- Vertex 1 Z-coordinate {m}
    11.350000000000,         !- Vertex 2 X-coordinate {m}
    6.750000000000,          !- Vertex 2 Y-coordinate {m}
    0.000000000000,          !- Vertex 2 Z-coordinate {m}
    11.350000000000,         !- Vertex 3 X-coordinate {m}
    3.600000000000,          !- Vertex 3 Y-coordinate {m}
    0.000000000000,          !- Vertex 3 Z-coordinate {m}
    11.350000000000,         !- Vertex 4 X-coordinate {m}
    3.600000000000,          !- Vertex 4 Y-coordinate {m}
    2.850000000000;          !- Vertex 4 Z-coordinate {m}

BuildingSurface:Detailed,
    893457,                  !- Name
    Wall,                    !- Surface Type
    Exterior Wall North,     !- Construction Name
    APTO03_P1,               !- Zone Name
    Outdoors,                !- Outside Boundary Condition
    ,                        !- Outside Boundary Condition Object
    SunExposed,              !- Sun Exposure
    WindExposed,             !- Wind Exposure
    ,                        !- View Factor to Ground
    4,                       !- Number of Vertices
    17.150000000000,         !- Vertex 1 X-coordinate {m}
    6.750000000000,          !- Vertex 1 Y-coordinate {m}
    2.850000000000,          !- Vertex 1 Z-coordinate {m}
    17.150000000000,         !- Vertex 2 X-coordinate {m}
    6.750000000000,          !- Vertex 2 Y-coordinate {m}
    0.000000000000,          !- Vertex 2 Z-coordinate {m}
    11.350000000000,         !- Vertex 3 X-coordinate {m}
    6.750000000000,          !- Vertex 3 Y-coordinate {m}
    0.000000000000,          !- Vertex 3 Z-coordinate {m}
    11.350000000000,         !- Vertex 4 X-coordinate {m}
    6.750000000000,          !- Vertex 4 Y-coordinate {m}
    2.850000000000;          !- Vertex 4 Z-coordinate {m}

BuildingSurface:Detailed,
    E7EC6E,                  !- Name
    Wall,                    !- Surface Type
    Exterior Wall East,      !- Construction Name
    APTO03_P1,               !- Zone Name
    Outdoors,                !- Outside Boundary Condition
    ,                        !- Outside Boundary Condition Object
    SunExposed,              !- Sun Exposure
    WindExposed,             !- Wind Exposure
    ,                        !- View Factor to Ground
    4,                       !- Number of Vertices
    17.150000000000,         !- Vertex 1 X-coordinate {m}
    0.950000000000,          !- Vertex 1 Y-coordinate {m}
    2.850000000000,          !- Vertex 1 Z-coordinate {m}
    17.150000000000,         !- Vertex 2 X-coordinate {m}
    0.950000000000,          !- Vertex 2 Y-coordinate {m}
    0.000000000000,          !- Vertex 2 Z-coordinate {m}
    17.150000000000,         !- Vertex 3 X-coordinate {m}
    6.750000000000,          !- Vertex 3 Y-coordinate {m}
    0.000000000000,          !- Vertex 3 Z-coordinate {m}
    17.150000000000,         !- Vertex 4 X-coordinate {m}
    6.750000000000,          !- Vertex 4 Y-coordinate {m}
    2.850000000000;          !- Vertex 4 Z-coordinate {m}

BuildingSurface:Detailed,
    DC49BD,                  !- Name
    Wall,                    !- Surface Type
    Exterior Wall South,     !- Construction Name
    APTO03_P1,               !- Zone Name
    Outdoors,                !- Outside Boundary Condition
    ,                        !- Outside Boundary Condition Object
    SunExposed,              !- Sun Exposure
    WindExposed,             !- Wind Exposure
    ,                        !- View Factor to Ground
    4,                       !- Number of Vertices
    15.800000000000,         !- Vertex 1 X-coordinate {m}
    0.950000000000,          !- Vertex 1 Y-coordinate {m}
    2.850000000000,          !- Vertex 1 Z-coordinate {m}
    15.800000000000,         !- Vertex 2 X-coordinate {m}
    0.950000000000,          !- Vertex 2 Y-coordinate {m}
    0.000000000000,          !- Vertex 2 Z-coordinate {m}
    17.150000000000,         !- Vertex 3 X-coordinate {m}
    0.950000000000,          !- Vertex 3 Y-coordinate {m}
    0.000000000000,          !- Vertex 3 Z-coordinate {m}
    17.150000000000,         !- Vertex 4 X-coordinate {m}
    0.950000000000,          !- Vertex 4 Y-coordinate {m}
    2.850000000000;          !- Vertex 4 Z-coordinate {m}

BuildingSurface:Detailed,
    68AD2F,                  !- Name
    Wall,                    !- Surface Type
    Exterior Wall East,      !- Construction Name
    APTO03_P1,               !- Zone Name
    Outdoors,                !- Outside Boundary Condition
    ,                        !- Outside Boundary Condition Object
    SunExposed,              !- Sun Exposure
    WindExposed,             !- Wind Exposure
    ,                        !- View Factor to Ground
    4,                       !- Number of Vertices
    15.800000000000,         !- Vertex 1 X-coordinate {m}
    0.000000000000,          !- Vertex 1 Y-coordinate {m}
    2.850000000000,          !- Vertex 1 Z-coordinate {m}
    15.800000000000,         !- Vertex 2 X-coordinate {m}
    0.000000000000,          !- Vertex 2 Y-coordinate {m}
    0.000000000000,          !- Vertex 2 Z-coordinate {m}
    15.800000000000,         !- Vertex 3 X-coordinate {m}
    0.950000000000,          !- Vertex 3 Y-coordinate {m}
    0.000000000000,          !- Vertex 3 Z-coordinate {m}
    15.800000000000,         !- Vertex 4 X-coordinate {m}
    0.950000000000,          !- Vertex 4 Y-coordinate {m}
    2.850000000000;          !- Vertex 4 Z-coordinate {m}

BuildingSurface:Detailed,
    5C79F3,                  !- Name
    Wall,                    !- Surface Type
    Interior Wall,           !- Construction Name
    APTO03_P1,               !- Zone Name
    Surface,                 !- Outside Boundary Condition
    CE594E,                  !- Outside Boundary Condition Object
    NoSun,                   !- Sun Exposure
    NoWind,                  !- Wind Exposure
    ,                        !- View Factor to Ground
    4,                       !- Number of Vertices
    9.700000000000,          !- Vertex 1 X-coordinate {m}
    0.000000000000,          !- Vertex 1 Y-coordinate {m}
    2.850000000000,          !- Vertex 1 Z-coordinate {m}
    9.700000000000,          !- Vertex 2 X-coordinate {m}
    0.000000000000,          !- Vertex 2 Y-coordinate {m}
    0.000000000000,          !- Vertex 2 Z-coordinate {m}
    15.800000000000,         !- Vertex 3 X-coordinate {m}
    0.000000000000,          !- Vertex 3 Y-coordinate {m}
    0.000000000000,          !- Vertex 3 Z-coordinate {m}
    15.800000000000,         !- Vertex 4 X-coordinate {m}
    0.000000000000,          !- Vertex 4 Y-coordinate {m}
    2.850000000000;          !- Vertex 4 Z-coordinate {m}

BuildingSurface:Detailed,
    F75C8A,                  !- Name
    Floor,                   !- Surface Type
    Exterior Floor,          !- Construction Name
    APTO04_P1,               !- Zone Name
    Ground,                  !- Outside Boundary Condition
    ,                        !- Outside Boundary Condition Object
    NoSun,                   !- Sun Exposure
    NoWind,                  !- Wind Exposure
    ,                        !- View Factor to Ground
    8,                       !- Number of Vertices
    15.800000000000,         !- Vertex 1 X-coordinate {m}
    0.000000000000,          !- Vertex 1 Y-coordinate {m}
    0.000000000000,          !- Vertex 1 Z-coordinate {m}
    15.800000000000,         !- Vertex 2 X-coordinate {m}
    -0.950000000000,         !- Vertex 2 Y-coordinate {m}
    0.000000000000,          !- Vertex 2 Z-coordinate {m}
    17.150000000000,         !- Vertex 3 X-coordinate {m}
    -0.950000000000,         !- Vertex 3 Y-coordinate {m}
    0.000000000000,          !- Vertex 3 Z-coordinate {m}
    17.150000000000,         !- Vertex 4 X-coordinate {m}
    -6.750000000000,         !- Vertex 4 Y-coordinate {m}
    0.000000000000,          !- Vertex 4 Z-coordinate {m}
    11.350000000000,         !- Vertex 5 X-coordinate {m}
    -6.750000000000,         !- Vertex 5 Y-coordinate {m}
    0.000000000000,          !- Vertex 5 Z-coordinate {m}
    11.350000000000,         !- Vertex 6 X-coordinate {m}
    -3.600000000000,         !- Vertex 6 Y-coordinate {m}
    0.000000000000,          !- Vertex 6 Z-coordinate {m}
    9.700000000000,          !- Vertex 7 X-coordinate {m}
    -3.600000000000,         !- Vertex 7 Y-coordinate {m}
    0.000000000000,          !- Vertex 7 Z-coordinate {m}
    9.700000000000,          !- Vertex 8 X-coordinate {m}
    0.000000000000,          !- Vertex 8 Y-coordinate {m}
    0.000000000000;          !- Vertex 8 Z-coordinate {m}

BuildingSurface:Detailed,
    C11558,                  !- Name
    Ceiling,                 !- Surface Type
    Interior Ceiling,        !- Construction Name
    APTO04_P1,               !- Zone Name
    Surface,                 !- Outside Boundary Condition
    56647D,                  !- Outside Boundary Condition Object
    NoSun,                   !- Sun Exposure
    NoWind,                  !- Wind Exposure
    ,                        !- View Factor to Ground
    8,                       !- Number of Vertices
    9.700000000000,          !- Vertex 1 X-coordinate {m}
    0.000000000000,          !- Vertex 1 Y-coordinate {m}
    2.850000000000,          !- Vertex 1 Z-coordinate {m}
    9.700000000000,          !- Vertex 2 X-coordinate {m}
    -3.600000000000,         !- Vertex 2 Y-coordinate {m}
    2.850000000000,          !- Vertex 2 Z-coordinate {m}
    11.350000000000,         !- Vertex 3 X-coordinate {m}
    -3.600000000000,         !- Vertex 3 Y-coordinate {m}
    2.850000000000,          !- Vertex 3 Z-coordinate {m}
    11.350000000000,         !- Vertex 4 X-coordinate {m}
    -6.750000000000,         !- Vertex 4 Y-coordinate {m}
    2.850000000000,          !- Vertex 4 Z-coordinate {m}
    17.150000000000,         !- Vertex 5 X-coordinate {m}
    -6.750000000000,         !- Vertex 5 Y-coordinate {m}
    2.850000000000,          !- Vertex 5 Z-coordinate {m}
    17.150000000000,         !- Vertex 6 X-coordinate {m}
    -0.950000000000,         !- Vertex 6 Y-coordinate {m}
    2.850000000000,          !- Vertex 6 Z-coordinate {m}
    15.800000000000,         !- Vertex 7 X-coordinate {m}
    -0.950000000000,         !- Vertex 7 Y-coordinate {m}
    2.850000000000,          !- Vertex 7 Z-coordinate {m}
    15.800000000000,         !- Vertex 8 X-coordinate {m}
    0.000000000000,          !- Vertex 8 Y-coordinate {m}
    2.850000000000;          !- Vertex 8 Z-coordinate {m}

BuildingSurface:Detailed,
    CE594E,                  !- Name
    Wall,                    !- Surface Type
    Interior Wall,           !- Construction Name
    APTO04_P1,               !- Zone Name
    Surface,                 !- Outside Boundary Condition
    5C79F3,                  !- Outside Boundary Condition Object
    NoSun,                   !- Sun Exposure
    NoWind,                  !- Wind Exposure
    ,                        !- View Factor to Ground
    4,                       !- Number of Vertices
    15.800000000000,         !- Vertex 1 X-coordinate {m}
    0.000000000000,          !- Vertex 1 Y-coordinate {m}
    2.850000000000,          !- Vertex 1 Z-coordinate {m}
    15.800000000000,         !- Vertex 2 X-coordinate {m}
    0.000000000000,          !- Vertex 2 Y-coordinate {m}
    0.000000000000,          !- Vertex 2 Z-coordinate {m}
    9.700000000000,          !- Vertex 3 X-coordinate {m}
    0.000000000000,          !- Vertex 3 Y-coordinate {m}
    0.000000000000,          !- Vertex 3 Z-coordinate {m}
    9.700000000000,          !- Vertex 4 X-coordinate {m}
    0.000000000000,          !- Vertex 4 Y-coordinate {m}
    2.850000000000;          !- Vertex 4 Z-coordinate {m}

BuildingSurface:Detailed,
    2B2B70,                  !- Name
    Wall,                    !- Surface Type
    Exterior Wall East,      !- Construction Name
    APTO04_P1,               !- Zone Name
    Outdoors,                !- Outside Boundary Condition
    ,                        !- Outside Boundary Condition Object
    SunExposed,              !- Sun Exposure
    WindExposed,             !- Wind Exposure
    ,                        !- View Factor to Ground
    4,                       !- Number of Vertices
    15.800000000000,         !- Vertex 1 X-coordinate {m}
    -0.950000000000,         !- Vertex 1 Y-coordinate {m}
    2.850000000000,          !- Vertex 1 Z-coordinate {m}
    15.800000000000,         !- Vertex 2 X-coordinate {m}
    -0.950000000000,         !- Vertex 2 Y-coordinate {m}
    0.000000000000,          !- Vertex 2 Z-coordinate {m}
    15.800000000000,         !- Vertex 3 X-coordinate {m}
    0.000000000000,          !- Vertex 3 Y-coordinate {m}
    0.000000000000,          !- Vertex 3 Z-coordinate {m}
    15.800000000000,         !- Vertex 4 X-coordinate {m}
    0.000000000000,          !- Vertex 4 Y-coordinate {m}
    2.850000000000;          !- Vertex 4 Z-coordinate {m}

BuildingSurface:Detailed,
    FA2B7B,                  !- Name
    Wall,                    !- Surface Type
    Exterior Wall North,     !- Construction Name
    APTO04_P1,               !- Zone Name
    Outdoors,                !- Outside Boundary Condition
    ,                        !- Outside Boundary Condition Object
    SunExposed,              !- Sun Exposure
    WindExposed,             !- Wind Exposure
    ,                        !- View Factor to Ground
    4,                       !- Number of Vertices
    17.150000000000,         !- Vertex 1 X-coordinate {m}
    -0.950000000000,         !- Vertex 1 Y-coordinate {m}
    2.850000000000,          !- Vertex 1 Z-coordinate {m}
    17.150000000000,         !- Vertex 2 X-coordinate {m}
    -0.950000000000,         !- Vertex 2 Y-coordinate {m}
    0.000000000000,          !- Vertex 2 Z-coordinate {m}
    15.800000000000,         !- Vertex 3 X-coordinate {m}
    -0.950000000000,         !- Vertex 3 Y-coordinate {m}
    0.000000000000,          !- Vertex 3 Z-coordinate {m}
    15.800000000000,         !- Vertex 4 X-coordinate {m}
    -0.950000000000,         !- Vertex 4 Y-coordinate {m}
    2.850000000000;          !- Vertex 4 Z-coordinate {m}

BuildingSurface:Detailed,
    7D377E,                  !- Name
    Wall,                    !- Surface Type
    Exterior Wall East,      !- Construction Name
    APTO04_P1,               !- Zone Name
    Outdoors,                !- Outside Boundary Condition
    ,                        !- Outside Boundary Condition Object
    SunExposed,              !- Sun Exposure
    WindExposed,             !- Wind Exposure
    ,                        !- View Factor to Ground
    4,                       !- Number of Vertices
    17.150000000000,         !- Vertex 1 X-coordinate {m}
    -6.750000000000,         !- Vertex 1 Y-coordinate {m}
    2.850000000000,          !- Vertex 1 Z-coordinate {m}
    17.150000000000,         !- Vertex 2 X-coordinate {m}
    -6.750000000000,         !- Vertex 2 Y-coordinate {m}
    0.000000000000,          !- Vertex 2 Z-coordinate {m}
    17.150000000000,         !- Vertex 3 X-coordinate {m}
    -0.950000000000,         !- Vertex 3 Y-coordinate {m}
    0.000000000000,          !- Vertex 3 Z-coordinate {m}
    17.150000000000,         !- Vertex 4 X-coordinate {m}
    -0.950000000000,         !- Vertex 4 Y-coordinate {m}
    2.850000000000;          !- Vertex 4 Z-coordinate {m}

BuildingSurface:Detailed,
    1E9817,                  !- Name
    Wall,                    !- Surface Type
    Exterior Wall South,     !- Construction Name
    APTO04_P1,               !- Zone Name
    Outdoors,                !- Outside Boundary Condition
    ,                        !- Outside Boundary Condition Object
    SunExposed,              !- Sun Exposure
    WindExposed,             !- Wind Exposure
    ,                        !- View Factor to Ground
    4,                       !- Number of Vertices
    11.350000000000,         !- Vertex 1 X-coordinate {m}
    -6.750000000000,         !- Vertex 1 Y-coordinate {m}
    2.850000000000,          !- Vertex 1 Z-coordinate {m}
    11.350000000000,         !- Vertex 2 X-coordinate {m}
    -6.750000000000,         !- Vertex 2 Y-coordinate {m}
    0.000000000000,          !- Vertex 2 Z-coordinate {m}
    17.150000000000,         !- Vertex 3 X-coordinate {m}
    -6.750000000000,         !- Vertex 3 Y-coordinate {m}
    0.000000000000,          !- Vertex 3 Z-coordinate {m}
    17.150000000000,         !- Vertex 4 X-coordinate {m}
    -6.750000000000,         !- Vertex 4 Y-coordinate {m}
    2.850000000000;          !- Vertex 4 Z-coordinate {m}

BuildingSurface:Detailed,
    6E564B,                  !- Name
    Wall,                    !- Surface Type
    Exterior Wall West,      !- Construction Name
    APTO04_P1,               !- Zone Name
    Outdoors,                !- Outside Boundary Condition
    ,                        !- Outside Boundary Condition Object
    SunExposed,              !- Sun Exposure
    WindExposed,             !- Wind Exposure
    ,                        !- View Factor to Ground
    4,                       !- Number of Vertices
    11.350000000000,         !- Vertex 1 X-coordinate {m}
    -3.600000000000,         !- Vertex 1 Y-coordinate {m}
    2.850000000000,          !- Vertex 1 Z-coordinate {m}
    11.350000000000,         !- Vertex 2 X-coordinate {m}
    -3.600000000000,         !- Vertex 2 Y-coordinate {m}
    0.000000000000,          !- Vertex 2 Z-coordinate {m}
    11.350000000000,         !- Vertex 3 X-coordinate {m}
    -6.750000000000,         !- Vertex 3 Y-coordinate {m}
    0.000000000000,          !- Vertex 3 Z-coordinate {m}
    11.350000000000,         !- Vertex 4 X-coordinate {m}
    -6.750000000000,         !- Vertex 4 Y-coordinate {m}
    2.850000000000;          !- Vertex 4 Z-coordinate {m}

BuildingSurface:Detailed,
    6CDA64,                  !- Name
    Wall,                    !- Surface Type
    Interior Wall,           !- Construction Name
    APTO04_P1,               !- Zone Name
    Surface,                 !- Outside Boundary Condition
    B31128,                  !- Outside Boundary Condition Object
    NoSun,                   !- Sun Exposure
    NoWind,                  !- Wind Exposure
    ,                        !- View Factor to Ground
    4,                       !- Number of Vertices
    9.700000000000,          !- Vertex 1 X-coordinate {m}
    0.000000000000,          !- Vertex 1 Y-coordinate {m}
    2.850000000000,          !- Vertex 1 Z-coordinate {m}
    9.700000000000,          !- Vertex 2 X-coordinate {m}
    0.000000000000,          !- Vertex 2 Y-coordinate {m}
    0.000000000000,          !- Vertex 2 Z-coordinate {m}
    9.700000000000,          !- Vertex 3 X-coordinate {m}
    -3.600000000000,         !- Vertex 3 Y-coordinate {m}
    0.000000000000,          !- Vertex 3 Z-coordinate {m}
    9.700000000000,          !- Vertex 4 X-coordinate {m}
    -3.600000000000,         !- Vertex 4 Y-coordinate {m}
    2.850000000000;          !- Vertex 4 Z-coordinate {m}

BuildingSurface:Detailed,
    38CE97,                  !- Name
    Wall,                    !- Surface Type
    Exterior Wall South,     !- Construction Name
    APTO04_P1,               !- Zone Name
    Outdoors,                !- Outside Boundary Condition
    ,                        !- Outside Boundary Condition Object
    SunExposed,              !- Sun Exposure
    WindExposed,             !- Wind Exposure
    ,                        !- View Factor to Ground
    4,                       !- Number of Vertices
    9.700000000000,          !- Vertex 1 X-coordinate {m}
    -3.600000000000,         !- Vertex 1 Y-coordinate {m}
    2.850000000000,          !- Vertex 1 Z-coordinate {m}
    9.700000000000,          !- Vertex 2 X-coordinate {m}
    -3.600000000000,         !- Vertex 2 Y-coordinate {m}
    0.000000000000,          !- Vertex 2 Z-coordinate {m}
    11.350000000000,         !- Vertex 3 X-coordinate {m}
    -3.600000000000,         !- Vertex 3 Y-coordinate {m}
    0.000000000000,          !- Vertex 3 Z-coordinate {m}
    11.350000000000,         !- Vertex 4 X-coordinate {m}
    -3.600000000000,         !- Vertex 4 Y-coordinate {m}
    2.850000000000;          !- Vertex 4 Z-coordinate {m}

BuildingSurface:Detailed,
    CF5595,                  !- Name
    Floor,                   !- Surface Type
    Exterior Floor,          !- Construction Name
    CIRCULA_P1,              !- Zone Name
    Ground,                  !- Outside Boundary Condition
    ,                        !- Outside Boundary Condition Object
    NoSun,                   !- Sun Exposure
    NoWind,                  !- Wind Exposure
    ,                        !- View Factor to Ground
    4,                       !- Number of Vertices
    9.700000000000,          !- Vertex 1 X-coordinate {m}
    3.600000000000,          !- Vertex 1 Y-coordinate {m}
    0.000000000000,          !- Vertex 1 Z-coordinate {m}
    9.700000000000,          !- Vertex 2 X-coordinate {m}
    -3.600000000000,         !- Vertex 2 Y-coordinate {m}
    0.000000000000,          !- Vertex 2 Z-coordinate {m}
    7.450000000000,          !- Vertex 3 X-coordinate {m}
    -3.600000000000,         !- Vertex 3 Y-coordinate {m}
    0.000000000000,          !- Vertex 3 Z-coordinate {m}
    7.450000000000,          !- Vertex 4 X-coordinate {m}
    3.600000000000,          !- Vertex 4 Y-coordinate {m}
    0.000000000000;          !- Vertex 4 Z-coordinate {m}

BuildingSurface:Detailed,
    627074,                  !- Name
    Ceiling,                 !- Surface Type
    Interior Ceiling,        !- Construction Name
    CIRCULA_P1,              !- Zone Name
    Surface,                 !- Outside Boundary Condition
    62D25F,                  !- Outside Boundary Condition Object
    NoSun,                   !- Sun Exposure
    NoWind,                  !- Wind Exposure
    ,                        !- View Factor to Ground
    4,                       !- Number of Vertices
    7.450000000000,          !- Vertex 1 X-coordinate {m}
    3.600000000000,          !- Vertex 1 Y-coordinate {m}
    2.850000000000,          !- Vertex 1 Z-coordinate {m}
    7.450000000000,          !- Vertex 2 X-coordinate {m}
    -3.600000000000,         !- Vertex 2 Y-coordinate {m}
    2.850000000000,          !- Vertex 2 Z-coordinate {m}
    9.700000000000,          !- Vertex 3 X-coordinate {m}
    -3.600000000000,         !- Vertex 3 Y-coordinate {m}
    2.850000000000,          !- Vertex 3 Z-coordinate {m}
    9.700000000000,          !- Vertex 4 X-coordinate {m}
    3.600000000000,          !- Vertex 4 Y-coordinate {m}
    2.850000000000;          !- Vertex 4 Z-coordinate {m}

BuildingSurface:Detailed,
    38F7D5,                  !- Name
    Wall,                    !- Surface Type
    Interior Wall,           !- Construction Name
    CIRCULA_P1,              !- Zone Name
    Surface,                 !- Outside Boundary Condition
    56DE11,                  !- Outside Boundary Condition Object
    NoSun,                   !- Sun Exposure
    NoWind,                  !- Wind Exposure
    ,                        !- View Factor to Ground
    4,                       !- Number of Vertices
    7.450000000000,          !- Vertex 1 X-coordinate {m}
    0.000000000000,          !- Vertex 1 Y-coordinate {m}
    2.850000000000,          !- Vertex 1 Z-coordinate {m}
    7.450000000000,          !- Vertex 2 X-coordinate {m}
    0.000000000000,          !- Vertex 2 Y-coordinate {m}
    0.000000000000,          !- Vertex 2 Z-coordinate {m}
    7.450000000000,          !- Vertex 3 X-coordinate {m}
    -3.600000000000,         !- Vertex 3 Y-coordinate {m}
    0.000000000000,          !- Vertex 3 Z-coordinate {m}
    7.450000000000,          !- Vertex 4 X-coordinate {m}
    -3.600000000000,         !- Vertex 4 Y-coordinate {m}
    2.850000000000;          !- Vertex 4 Z-coordinate {m}

BuildingSurface:Detailed,
    2B027A,                  !- Name
    Wall,                    !- Surface Type
    Interior Wall,           !- Construction Name
    CIRCULA_P1,              !- Zone Name
    Surface,                 !- Outside Boundary Condition
    65AC26,                  !- Outside Boundary Condition Object
    NoSun,                   !- Sun Exposure
    NoWind,                  !- Wind Exposure
    ,                        !- View Factor to Ground
    4,                       !- Number of Vertices
    9.700000000000,          !- Vertex 1 X-coordinate {m}
    0.000000000000,          !- Vertex 1 Y-coordinate {m}
    2.850000000000,          !- Vertex 1 Z-coordinate {m}
    9.700000000000,          !- Vertex 2 X-coordinate {m}
    0.000000000000,          !- Vertex 2 Y-coordinate {m}
    0.000000000000,          !- Vertex 2 Z-coordinate {m}
    9.700000000000,          !- Vertex 3 X-coordinate {m}
    3.600000000000,          !- Vertex 3 Y-coordinate {m}
    0.000000000000,          !- Vertex 3 Z-coordinate {m}
    9.700000000000,          !- Vertex 4 X-coordinate {m}
    3.600000000000,          !- Vertex 4 Y-coordinate {m}
    2.850000000000;          !- Vertex 4 Z-coordinate {m}

BuildingSurface:Detailed,
    38765C,                  !- Name
    Wall,                    !- Surface Type
    Exterior Wall South,     !- Construction Name
    CIRCULA_P1,              !- Zone Name
    Outdoors,                !- Outside Boundary Condition
    ,                        !- Outside Boundary Condition Object
    SunExposed,              !- Sun Exposure
    WindExposed,             !- Wind Exposure
    ,                        !- View Factor to Ground
    4,                       !- Number of Vertices
    7.450000000000,          !- Vertex 1 X-coordinate {m}
    -3.600000000000,         !- Vertex 1 Y-coordinate {m}
    2.850000000000,          !- Vertex 1 Z-coordinate {m}
    7.450000000000,          !- Vertex 2 X-coordinate {m}
    -3.600000000000,         !- Vertex 2 Y-coordinate {m}
    0.000000000000,          !- Vertex 2 Z-coordinate {m}
    9.700000000000,          !- Vertex 3 X-coordinate {m}
    -3.600000000000,         !- Vertex 3 Y-coordinate {m}
    0.000000000000,          !- Vertex 3 Z-coordinate {m}
    9.700000000000,          !- Vertex 4 X-coordinate {m}
    -3.600000000000,         !- Vertex 4 Y-coordinate {m}
    2.850000000000;          !- Vertex 4 Z-coordinate {m}

BuildingSurface:Detailed,
    13F810,                  !- Name
    Wall,                    !- Surface Type
    Interior Wall,           !- Construction Name
    CIRCULA_P1,              !- Zone Name
    Surface,                 !- Outside Boundary Condition
    5EB753,                  !- Outside Boundary Condition Object
    NoSun,                   !- Sun Exposure
    NoWind,                  !- Wind Exposure
    ,                        !- View Factor to Ground
    4,                       !- Number of Vertices
    7.450000000000,          !- Vertex 1 X-coordinate {m}
    3.600000000000,          !- Vertex 1 Y-coordinate {m}
    2.850000000000,          !- Vertex 1 Z-coordinate {m}
    7.450000000000,          !- Vertex 2 X-coordinate {m}
    3.600000000000,          !- Vertex 2 Y-coordinate {m}
    0.000000000000,          !- Vertex 2 Z-coordinate {m}
    7.450000000000,          !- Vertex 3 X-coordinate {m}
    0.000000000000,          !- Vertex 3 Y-coordinate {m}
    0.000000000000,          !- Vertex 3 Z-coordinate {m}
    7.450000000000,          !- Vertex 4 X-coordinate {m}
    0.000000000000,          !- Vertex 4 Y-coordinate {m}
    2.850000000000;          !- Vertex 4 Z-coordinate {m}

BuildingSurface:Detailed,
    B31128,                  !- Name
    Wall,                    !- Surface Type
    Interior Wall,           !- Construction Name
    CIRCULA_P1,              !- Zone Name
    Surface,                 !- Outside Boundary Condition
    6CDA64,                  !- Outside Boundary Condition Object
    NoSun,                   !- Sun Exposure
    NoWind,                  !- Wind Exposure
    ,                        !- View Factor to Ground
    4,                       !- Number of Vertices
    9.700000000000,          !- Vertex 1 X-coordinate {m}
    -3.600000000000,         !- Vertex 1 Y-coordinate {m}
    2.850000000000,          !- Vertex 1 Z-coordinate {m}
    9.700000000000,          !- Vertex 2 X-coordinate {m}
    -3.600000000000,         !- Vertex 2 Y-coordinate {m}
    0.000000000000,          !- Vertex 2 Z-coordinate {m}
    9.700000000000,          !- Vertex 3 X-coordinate {m}
    0.000000000000,          !- Vertex 3 Y-coordinate {m}
    0.000000000000,          !- Vertex 3 Z-coordinate {m}
    9.700000000000,          !- Vertex 4 X-coordinate {m}
    0.000000000000,          !- Vertex 4 Y-coordinate {m}
    2.850000000000;          !- Vertex 4 Z-coordinate {m}

BuildingSurface:Detailed,
    62D25F,                  !- Name
    Floor,                   !- Surface Type
    Interior Floor,          !- Construction Name
    CIRCULA_P2,              !- Zone Name
    Surface,                 !- Outside Boundary Condition
    627074,                  !- Outside Boundary Condition Object
    NoSun,                   !- Sun Exposure
    NoWind,                  !- Wind Exposure
    ,                        !- View Factor to Ground
    4,                       !- Number of Vertices
    9.700000000000,          !- Vertex 1 X-coordinate {m}
    3.600000000000,          !- Vertex 1 Y-coordinate {m}
    2.850000000000,          !- Vertex 1 Z-coordinate {m}
    9.700000000000,          !- Vertex 2 X-coordinate {m}
    -3.600000000000,         !- Vertex 2 Y-coordinate {m}
    2.850000000000,          !- Vertex 2 Z-coordinate {m}
    7.450000000000,          !- Vertex 3 X-coordinate {m}
    -3.600000000000,         !- Vertex 3 Y-coordinate {m}
    2.850000000000,          !- Vertex 3 Z-coordinate {m}
    7.450000000000,          !- Vertex 4 X-coordinate {m}
    3.600000000000,          !- Vertex 4 Y-coordinate {m}
    2.850000000000;          !- Vertex 4 Z-coordinate {m}

BuildingSurface:Detailed,
    703817,                  !- Name
    Ceiling,                 !- Surface Type
    Interior Ceiling,        !- Construction Name
    CIRCULA_P2,              !- Zone Name
    Surface,                 !- Outside Boundary Condition
    493E75,                  !- Outside Boundary Condition Object
    NoSun,                   !- Sun Exposure
    NoWind,                  !- Wind Exposure
    ,                        !- View Factor to Ground
    4,                       !- Number of Vertices
    7.450000000000,          !- Vertex 1 X-coordinate {m}
    3.600000000000,          !- Vertex 1 Y-coordinate {m}
    5.700000000000,          !- Vertex 1 Z-coordinate {m}
    7.450000000000,          !- Vertex 2 X-coordinate {m}
    -3.600000000000,         !- Vertex 2 Y-coordinate {m}
    5.700000000000,          !- Vertex 2 Z-coordinate {m}
    9.700000000000,          !- Vertex 3 X-coordinate {m}
    -3.600000000000,         !- Vertex 3 Y-coordinate {m}
    5.700000000000,          !- Vertex 3 Z-coordinate {m}
    9.700000000000,          !- Vertex 4 X-coordinate {m}
    3.600000000000,          !- Vertex 4 Y-coordinate {m}
    5.700000000000;          !- Vertex 4 Z-coordinate {m}

BuildingSurface:Detailed,
    C03F39,                  !- Name
    Wall,                    !- Surface Type
    Interior Wall,           !- Construction Name
    CIRCULA_P2,              !- Zone Name
    Surface,                 !- Outside Boundary Condition
    1F5680,                  !- Outside Boundary Condition Object
    NoSun,                   !- Sun Exposure
    NoWind,                  !- Wind Exposure
    ,                        !- View Factor to Ground
    4,                       !- Number of Vertices
    9.700000000000,          !- Vertex 1 X-coordinate {m}
    0.000000000000,          !- Vertex 1 Y-coordinate {m}
    5.700000000000,          !- Vertex 1 Z-coordinate {m}
    9.700000000000,          !- Vertex 2 X-coordinate {m}
    0.000000000000,          !- Vertex 2 Y-coordinate {m}
    2.850000000000,          !- Vertex 2 Z-coordinate {m}
    9.700000000000,          !- Vertex 3 X-coordinate {m}
    3.600000000000,          !- Vertex 3 Y-coordinate {m}
    2.850000000000,          !- Vertex 3 Z-coordinate {m}
    9.700000000000,          !- Vertex 4 X-coordinate {m}
    3.600000000000,          !- Vertex 4 Y-coordinate {m}
    5.700000000000;          !- Vertex 4 Z-coordinate {m}

BuildingSurface:Detailed,
    B99166,                  !- Name
    Wall,                    !- Surface Type
    Exterior Wall South,     !- Construction Name
    CIRCULA_P2,              !- Zone Name
    Outdoors,                !- Outside Boundary Condition
    ,                        !- Outside Boundary Condition Object
    SunExposed,              !- Sun Exposure
    WindExposed,             !- Wind Exposure
    ,                        !- View Factor to Ground
    4,                       !- Number of Vertices
    7.450000000000,          !- Vertex 1 X-coordinate {m}
    -3.600000000000,         !- Vertex 1 Y-coordinate {m}
    5.700000000000,          !- Vertex 1 Z-coordinate {m}
    7.450000000000,          !- Vertex 2 X-coordinate {m}
    -3.600000000000,         !- Vertex 2 Y-coordinate {m}
    2.850000000000,          !- Vertex 2 Z-coordinate {m}
    9.700000000000,          !- Vertex 3 X-coordinate {m}
    -3.600000000000,         !- Vertex 3 Y-coordinate {m}
    2.850000000000,          !- Vertex 3 Z-coordinate {m}
    9.700000000000,          !- Vertex 4 X-coordinate {m}
    -3.600000000000,         !- Vertex 4 Y-coordinate {m}
    5.700000000000;          !- Vertex 4 Z-coordinate {m}

BuildingSurface:Detailed,
    F668AD,                  !- Name
    Wall,                    !- Surface Type
    Interior Wall,           !- Construction Name
    CIRCULA_P2,              !- Zone Name
    Surface,                 !- Outside Boundary Condition
    D51161,                  !- Outside Boundary Condition Object
    NoSun,                   !- Sun Exposure
    NoWind,                  !- Wind Exposure
    ,                        !- View Factor to Ground
    4,                       !- Number of Vertices
    7.450000000000,          !- Vertex 1 X-coordinate {m}
    0.000000000000,          !- Vertex 1 Y-coordinate {m}
    5.700000000000,          !- Vertex 1 Z-coordinate {m}
    7.450000000000,          !- Vertex 2 X-coordinate {m}
    0.000000000000,          !- Vertex 2 Y-coordinate {m}
    2.850000000000,          !- Vertex 2 Z-coordinate {m}
    7.450000000000,          !- Vertex 3 X-coordinate {m}
    -3.600000000000,         !- Vertex 3 Y-coordinate {m}
    2.850000000000,          !- Vertex 3 Z-coordinate {m}
    7.450000000000,          !- Vertex 4 X-coordinate {m}
    -3.600000000000,         !- Vertex 4 Y-coordinate {m}
    5.700000000000;          !- Vertex 4 Z-coordinate {m}

BuildingSurface:Detailed,
    832736,                  !- Name
    Wall,                    !- Surface Type
    Exterior Wall North,     !- Construction Name
    CIRCULA_P2,              !- Zone Name
    Outdoors,                !- Outside Boundary Condition
    ,                        !- Outside Boundary Condition Object
    SunExposed,              !- Sun Exposure
    WindExposed,             !- Wind Exposure
    ,                        !- View Factor to Ground
    4,                       !- Number of Vertices
    9.700000000000,          !- Vertex 1 X-coordinate {m}
    3.600000000000,          !- Vertex 1 Y-coordinate {m}
    5.700000000000,          !- Vertex 1 Z-coordinate {m}
    9.700000000000,          !- Vertex 2 X-coordinate {m}
    3.600000000000,          !- Vertex 2 Y-coordinate {m}
    2.850000000000,          !- Vertex 2 Z-coordinate {m}
    7.450000000000,          !- Vertex 3 X-coordinate {m}
    3.600000000000,          !- Vertex 3 Y-coordinate {m}
    2.850000000000,          !- Vertex 3 Z-coordinate {m}
    7.450000000000,          !- Vertex 4 X-coordinate {m}
    3.600000000000,          !- Vertex 4 Y-coordinate {m}
    5.700000000000;          !- Vertex 4 Z-coordinate {m}

BuildingSurface:Detailed,
    812283,                  !- Name
    Wall,                    !- Surface Type
    Interior Wall,           !- Construction Name
    CIRCULA_P2,              !- Zone Name
    Surface,                 !- Outside Boundary Condition
    BB938E,                  !- Outside Boundary Condition Object
    NoSun,                   !- Sun Exposure
    NoWind,                  !- Wind Exposure
    ,                        !- View Factor to Ground
    4,                       !- Number of Vertices
    7.450000000000,          !- Vertex 1 X-coordinate {m}
    3.600000000000,          !- Vertex 1 Y-coordinate {m}
    5.700000000000,          !- Vertex 1 Z-coordinate {m}
    7.450000000000,          !- Vertex 2 X-coordinate {m}
    3.600000000000,          !- Vertex 2 Y-coordinate {m}
    2.850000000000,          !- Vertex 2 Z-coordinate {m}
    7.450000000000,          !- Vertex 3 X-coordinate {m}
    0.000000000000,          !- Vertex 3 Y-coordinate {m}
    2.850000000000,          !- Vertex 3 Z-coordinate {m}
    7.450000000000,          !- Vertex 4 X-coordinate {m}
    0.000000000000,          !- Vertex 4 Y-coordinate {m}
    5.700000000000;          !- Vertex 4 Z-coordinate {m}

BuildingSurface:Detailed,
    76A5B8,                  !- Name
    Wall,                    !- Surface Type
    Interior Wall,           !- Construction Name
    CIRCULA_P2,              !- Zone Name
    Surface,                 !- Outside Boundary Condition
    972A52,                  !- Outside Boundary Condition Object
    NoSun,                   !- Sun Exposure
    NoWind,                  !- Wind Exposure
    ,                        !- View Factor to Ground
    4,                       !- Number of Vertices
    9.700000000000,          !- Vertex 1 X-coordinate {m}
    -3.600000000000,         !- Vertex 1 Y-coordinate {m}
    5.700000000000,          !- Vertex 1 Z-coordinate {m}
    9.700000000000,          !- Vertex 2 X-coordinate {m}
    -3.600000000000,         !- Vertex 2 Y-coordinate {m}
    2.850000000000,          !- Vertex 2 Z-coordinate {m}
    9.700000000000,          !- Vertex 3 X-coordinate {m}
    0.000000000000,          !- Vertex 3 Y-coordinate {m}
    2.850000000000,          !- Vertex 3 Z-coordinate {m}
    9.700000000000,          !- Vertex 4 X-coordinate {m}
    0.000000000000,          !- Vertex 4 Y-coordinate {m}
    5.700000000000;          !- Vertex 4 Z-coordinate {m}

BuildingSurface:Detailed,
    493E75,                  !- Name
    Floor,                   !- Surface Type
    Interior Floor,          !- Construction Name
    CIRCULA_P3,              !- Zone Name
    Surface,                 !- Outside Boundary Condition
    703817,                  !- Outside Boundary Condition Object
    NoSun,                   !- Sun Exposure
    NoWind,                  !- Wind Exposure
    ,                        !- View Factor to Ground
    4,                       !- Number of Vertices
    9.700000000000,          !- Vertex 1 X-coordinate {m}
    3.600000000000,          !- Vertex 1 Y-coordinate {m}
    5.700000000000,          !- Vertex 1 Z-coordinate {m}
    9.700000000000,          !- Vertex 2 X-coordinate {m}
    -3.600000000000,         !- Vertex 2 Y-coordinate {m}
    5.700000000000,          !- Vertex 2 Z-coordinate {m}
    7.450000000000,          !- Vertex 3 X-coordinate {m}
    -3.600000000000,         !- Vertex 3 Y-coordinate {m}
    5.700000000000,          !- Vertex 3 Z-coordinate {m}
    7.450000000000,          !- Vertex 4 X-coordinate {m}
    3.600000000000,          !- Vertex 4 Y-coordinate {m}
    5.700000000000;          !- Vertex 4 Z-coordinate {m}

BuildingSurface:Detailed,
    B471E1,                  !- Name
    Ceiling,                 !- Surface Type
    Interior Ceiling,        !- Construction Name
    CIRCULA_P3,              !- Zone Name
    Surface,                 !- Outside Boundary Condition
    9E9D18,                  !- Outside Boundary Condition Object
    NoSun,                   !- Sun Exposure
    NoWind,                  !- Wind Exposure
    ,                        !- View Factor to Ground
    4,                       !- Number of Vertices
    7.450000000000,          !- Vertex 1 X-coordinate {m}
    3.600000000000,          !- Vertex 1 Y-coordinate {m}
    8.550000000000,          !- Vertex 1 Z-coordinate {m}
    7.450000000000,          !- Vertex 2 X-coordinate {m}
    -3.600000000000,         !- Vertex 2 Y-coordinate {m}
    8.550000000000,          !- Vertex 2 Z-coordinate {m}
    9.700000000000,          !- Vertex 3 X-coordinate {m}
    -3.600000000000,         !- Vertex 3 Y-coordinate {m}
    8.550000000000,          !- Vertex 3 Z-coordinate {m}
    9.700000000000,          !- Vertex 4 X-coordinate {m}
    3.600000000000,          !- Vertex 4 Y-coordinate {m}
    8.550000000000;          !- Vertex 4 Z-coordinate {m}

BuildingSurface:Detailed,
    70EA51,                  !- Name
    Wall,                    !- Surface Type
    Interior Wall,           !- Construction Name
    CIRCULA_P3,              !- Zone Name
    Surface,                 !- Outside Boundary Condition
    9A48D0,                  !- Outside Boundary Condition Object
    NoSun,                   !- Sun Exposure
    NoWind,                  !- Wind Exposure
    ,                        !- View Factor to Ground
    4,                       !- Number of Vertices
    9.700000000000,          !- Vertex 1 X-coordinate {m}
    0.000000000000,          !- Vertex 1 Y-coordinate {m}
    8.550000000000,          !- Vertex 1 Z-coordinate {m}
    9.700000000000,          !- Vertex 2 X-coordinate {m}
    0.000000000000,          !- Vertex 2 Y-coordinate {m}
    5.700000000000,          !- Vertex 2 Z-coordinate {m}
    9.700000000000,          !- Vertex 3 X-coordinate {m}
    3.600000000000,          !- Vertex 3 Y-coordinate {m}
    5.700000000000,          !- Vertex 3 Z-coordinate {m}
    9.700000000000,          !- Vertex 4 X-coordinate {m}
    3.600000000000,          !- Vertex 4 Y-coordinate {m}
    8.550000000000;          !- Vertex 4 Z-coordinate {m}

BuildingSurface:Detailed,
    F0114F,                  !- Name
    Wall,                    !- Surface Type
    Exterior Wall South,     !- Construction Name
    CIRCULA_P3,              !- Zone Name
    Outdoors,                !- Outside Boundary Condition
    ,                        !- Outside Boundary Condition Object
    SunExposed,              !- Sun Exposure
    WindExposed,             !- Wind Exposure
    ,                        !- View Factor to Ground
    4,                       !- Number of Vertices
    7.450000000000,          !- Vertex 1 X-coordinate {m}
    -3.600000000000,         !- Vertex 1 Y-coordinate {m}
    8.550000000000,          !- Vertex 1 Z-coordinate {m}
    7.450000000000,          !- Vertex 2 X-coordinate {m}
    -3.600000000000,         !- Vertex 2 Y-coordinate {m}
    5.700000000000,          !- Vertex 2 Z-coordinate {m}
    9.700000000000,          !- Vertex 3 X-coordinate {m}
    -3.600000000000,         !- Vertex 3 Y-coordinate {m}
    5.700000000000,          !- Vertex 3 Z-coordinate {m}
    9.700000000000,          !- Vertex 4 X-coordinate {m}
    -3.600000000000,         !- Vertex 4 Y-coordinate {m}
    8.550000000000;          !- Vertex 4 Z-coordinate {m}

BuildingSurface:Detailed,
    122703,                  !- Name
    Wall,                    !- Surface Type
    Interior Wall,           !- Construction Name
    CIRCULA_P3,              !- Zone Name
    Surface,                 !- Outside Boundary Condition
    70A587,                  !- Outside Boundary Condition Object
    NoSun,                   !- Sun Exposure
    NoWind,                  !- Wind Exposure
    ,                        !- View Factor to Ground
    4,                       !- Number of Vertices
    7.450000000000,          !- Vertex 1 X-coordinate {m}
    0.000000000000,          !- Vertex 1 Y-coordinate {m}
    8.550000000000,          !- Vertex 1 Z-coordinate {m}
    7.450000000000,          !- Vertex 2 X-coordinate {m}
    0.000000000000,          !- Vertex 2 Y-coordinate {m}
    5.700000000000,          !- Vertex 2 Z-coordinate {m}
    7.450000000000,          !- Vertex 3 X-coordinate {m}
    -3.600000000000,         !- Vertex 3 Y-coordinate {m}
    5.700000000000,          !- Vertex 3 Z-coordinate {m}
    7.450000000000,          !- Vertex 4 X-coordinate {m}
    -3.600000000000,         !- Vertex 4 Y-coordinate {m}
    8.550000000000;          !- Vertex 4 Z-coordinate {m}

BuildingSurface:Detailed,
    546C4E,                  !- Name
    Wall,                    !- Surface Type
    Exterior Wall North,     !- Construction Name
    CIRCULA_P3,              !- Zone Name
    Outdoors,                !- Outside Boundary Condition
    ,                        !- Outside Boundary Condition Object
    SunExposed,              !- Sun Exposure
    WindExposed,             !- Wind Exposure
    ,                        !- View Factor to Ground
    4,                       !- Number of Vertices
    9.700000000000,          !- Vertex 1 X-coordinate {m}
    3.600000000000,          !- Vertex 1 Y-coordinate {m}
    8.550000000000,          !- Vertex 1 Z-coordinate {m}
    9.700000000000,          !- Vertex 2 X-coordinate {m}
    3.600000000000,          !- Vertex 2 Y-coordinate {m}
    5.700000000000,          !- Vertex 2 Z-coordinate {m}
    7.450000000000,          !- Vertex 3 X-coordinate {m}
    3.600000000000,          !- Vertex 3 Y-coordinate {m}
    5.700000000000,          !- Vertex 3 Z-coordinate {m}
    7.450000000000,          !- Vertex 4 X-coordinate {m}
    3.600000000000,          !- Vertex 4 Y-coordinate {m}
    8.550000000000;          !- Vertex 4 Z-coordinate {m}

BuildingSurface:Detailed,
    F5E602,                  !- Name
    Wall,                    !- Surface Type
    Interior Wall,           !- Construction Name
    CIRCULA_P3,              !- Zone Name
    Surface,                 !- Outside Boundary Condition
    D0D17B,                  !- Outside Boundary Condition Object
    NoSun,                   !- Sun Exposure
    NoWind,                  !- Wind Exposure
    ,                        !- View Factor to Ground
    4,                       !- Number of Vertices
    7.450000000000,          !- Vertex 1 X-coordinate {m}
    3.600000000000,          !- Vertex 1 Y-coordinate {m}
    8.550000000000,          !- Vertex 1 Z-coordinate {m}
    7.450000000000,          !- Vertex 2 X-coordinate {m}
    3.600000000000,          !- Vertex 2 Y-coordinate {m}
    5.700000000000,          !- Vertex 2 Z-coordinate {m}
    7.450000000000,          !- Vertex 3 X-coordinate {m}
    0.000000000000,          !- Vertex 3 Y-coordinate {m}
    5.700000000000,          !- Vertex 3 Z-coordinate {m}
    7.450000000000,          !- Vertex 4 X-coordinate {m}
    0.000000000000,          !- Vertex 4 Y-coordinate {m}
    8.550000000000;          !- Vertex 4 Z-coordinate {m}

BuildingSurface:Detailed,
    8F9255,                  !- Name
    Wall,                    !- Surface Type
    Interior Wall,           !- Construction Name
    CIRCULA_P3,              !- Zone Name
    Surface,                 !- Outside Boundary Condition
    DDE242,                  !- Outside Boundary Condition Object
    NoSun,                   !- Sun Exposure
    NoWind,                  !- Wind Exposure
    ,                        !- View Factor to Ground
    4,                       !- Number of Vertices
    9.700000000000,          !- Vertex 1 X-coordinate {m}
    -3.600000000000,         !- Vertex 1 Y-coordinate {m}
    8.550000000000,          !- Vertex 1 Z-coordinate {m}
    9.700000000000,          !- Vertex 2 X-coordinate {m}
    -3.600000000000,         !- Vertex 2 Y-coordinate {m}
    5.700000000000,          !- Vertex 2 Z-coordinate {m}
    9.700000000000,          !- Vertex 3 X-coordinate {m}
    0.000000000000,          !- Vertex 3 Y-coordinate {m}
    5.700000000000,          !- Vertex 3 Z-coordinate {m}
    9.700000000000,          !- Vertex 4 X-coordinate {m}
    0.000000000000,          !- Vertex 4 Y-coordinate {m}
    8.550000000000;          !- Vertex 4 Z-coordinate {m}

BuildingSurface:Detailed,
    9E9D18,                  !- Name
    Floor,                   !- Surface Type
    Interior Floor,          !- Construction Name
    CIRCULA_P4,              !- Zone Name
    Surface,                 !- Outside Boundary Condition
    B471E1,                  !- Outside Boundary Condition Object
    NoSun,                   !- Sun Exposure
    NoWind,                  !- Wind Exposure
    ,                        !- View Factor to Ground
    4,                       !- Number of Vertices
    9.700000000000,          !- Vertex 1 X-coordinate {m}
    3.600000000000,          !- Vertex 1 Y-coordinate {m}
    8.550000000000,          !- Vertex 1 Z-coordinate {m}
    9.700000000000,          !- Vertex 2 X-coordinate {m}
    -3.600000000000,         !- Vertex 2 Y-coordinate {m}
    8.550000000000,          !- Vertex 2 Z-coordinate {m}
    7.450000000000,          !- Vertex 3 X-coordinate {m}
    -3.600000000000,         !- Vertex 3 Y-coordinate {m}
    8.550000000000,          !- Vertex 3 Z-coordinate {m}
    7.450000000000,          !- Vertex 4 X-coordinate {m}
    3.600000000000,          !- Vertex 4 Y-coordinate {m}
    8.550000000000;          !- Vertex 4 Z-coordinate {m}

BuildingSurface:Detailed,
    CA1F33,                  !- Name
    Ceiling,                 !- Surface Type
    Interior Ceiling,        !- Construction Name
    CIRCULA_P4,              !- Zone Name
    Surface,                 !- Outside Boundary Condition
    715667,                  !- Outside Boundary Condition Object
    NoSun,                   !- Sun Exposure
    NoWind,                  !- Wind Exposure
    ,                        !- View Factor to Ground
    4,                       !- Number of Vertices
    7.450000000000,          !- Vertex 1 X-coordinate {m}
    3.600000000000,          !- Vertex 1 Y-coordinate {m}
    11.400000000000,         !- Vertex 1 Z-coordinate {m}
    7.450000000000,          !- Vertex 2 X-coordinate {m}
    -3.600000000000,         !- Vertex 2 Y-coordinate {m}
    11.400000000000,         !- Vertex 2 Z-coordinate {m}
    9.700000000000,          !- Vertex 3 X-coordinate {m}
    -3.600000000000,         !- Vertex 3 Y-coordinate {m}
    11.400000000000,         !- Vertex 3 Z-coordinate {m}
    9.700000000000,          !- Vertex 4 X-coordinate {m}
    3.600000000000,          !- Vertex 4 Y-coordinate {m}
    11.400000000000;         !- Vertex 4 Z-coordinate {m}

BuildingSurface:Detailed,
    2000C0,                  !- Name
    Wall,                    !- Surface Type
    Interior Wall,           !- Construction Name
    CIRCULA_P4,              !- Zone Name
    Surface,                 !- Outside Boundary Condition
    5E9FA4,                  !- Outside Boundary Condition Object
    NoSun,                   !- Sun Exposure
    NoWind,                  !- Wind Exposure
    ,                        !- View Factor to Ground
    4,                       !- Number of Vertices
    9.700000000000,          !- Vertex 1 X-coordinate {m}
    0.000000000000,          !- Vertex 1 Y-coordinate {m}
    11.400000000000,         !- Vertex 1 Z-coordinate {m}
    9.700000000000,          !- Vertex 2 X-coordinate {m}
    0.000000000000,          !- Vertex 2 Y-coordinate {m}
    8.550000000000,          !- Vertex 2 Z-coordinate {m}
    9.700000000000,          !- Vertex 3 X-coordinate {m}
    3.600000000000,          !- Vertex 3 Y-coordinate {m}
    8.550000000000,          !- Vertex 3 Z-coordinate {m}
    9.700000000000,          !- Vertex 4 X-coordinate {m}
    3.600000000000,          !- Vertex 4 Y-coordinate {m}
    11.400000000000;         !- Vertex 4 Z-coordinate {m}

BuildingSurface:Detailed,
    6EF233,                  !- Name
    Wall,                    !- Surface Type
    Exterior Wall South,     !- Construction Name
    CIRCULA_P4,              !- Zone Name
    Outdoors,                !- Outside Boundary Condition
    ,                        !- Outside Boundary Condition Object
    SunExposed,              !- Sun Exposure
    WindExposed,             !- Wind Exposure
    ,                        !- View Factor to Ground
    4,                       !- Number of Vertices
    7.450000000000,          !- Vertex 1 X-coordinate {m}
    -3.600000000000,         !- Vertex 1 Y-coordinate {m}
    11.400000000000,         !- Vertex 1 Z-coordinate {m}
    7.450000000000,          !- Vertex 2 X-coordinate {m}
    -3.600000000000,         !- Vertex 2 Y-coordinate {m}
    8.550000000000,          !- Vertex 2 Z-coordinate {m}
    9.700000000000,          !- Vertex 3 X-coordinate {m}
    -3.600000000000,         !- Vertex 3 Y-coordinate {m}
    8.550000000000,          !- Vertex 3 Z-coordinate {m}
    9.700000000000,          !- Vertex 4 X-coordinate {m}
    -3.600000000000,         !- Vertex 4 Y-coordinate {m}
    11.400000000000;         !- Vertex 4 Z-coordinate {m}

BuildingSurface:Detailed,
    62BA52,                  !- Name
    Wall,                    !- Surface Type
    Interior Wall,           !- Construction Name
    CIRCULA_P4,              !- Zone Name
    Surface,                 !- Outside Boundary Condition
    B38F12,                  !- Outside Boundary Condition Object
    NoSun,                   !- Sun Exposure
    NoWind,                  !- Wind Exposure
    ,                        !- View Factor to Ground
    4,                       !- Number of Vertices
    7.450000000000,          !- Vertex 1 X-coordinate {m}
    0.000000000000,          !- Vertex 1 Y-coordinate {m}
    11.400000000000,         !- Vertex 1 Z-coordinate {m}
    7.450000000000,          !- Vertex 2 X-coordinate {m}
    0.000000000000,          !- Vertex 2 Y-coordinate {m}
    8.550000000000,          !- Vertex 2 Z-coordinate {m}
    7.450000000000,          !- Vertex 3 X-coordinate {m}
    -3.600000000000,         !- Vertex 3 Y-coordinate {m}
    8.550000000000,          !- Vertex 3 Z-coordinate {m}
    7.450000000000,          !- Vertex 4 X-coordinate {m}
    -3.600000000000,         !- Vertex 4 Y-coordinate {m}
    11.400000000000;         !- Vertex 4 Z-coordinate {m}

BuildingSurface:Detailed,
    6CA7E4,                  !- Name
    Wall,                    !- Surface Type
    Exterior Wall North,     !- Construction Name
    CIRCULA_P4,              !- Zone Name
    Outdoors,                !- Outside Boundary Condition
    ,                        !- Outside Boundary Condition Object
    SunExposed,              !- Sun Exposure
    WindExposed,             !- Wind Exposure
    ,                        !- View Factor to Ground
    4,                       !- Number of Vertices
    9.700000000000,          !- Vertex 1 X-coordinate {m}
    3.600000000000,          !- Vertex 1 Y-coordinate {m}
    11.400000000000,         !- Vertex 1 Z-coordinate {m}
    9.700000000000,          !- Vertex 2 X-coordinate {m}
    3.600000000000,          !- Vertex 2 Y-coordinate {m}
    8.550000000000,          !- Vertex 2 Z-coordinate {m}
    7.450000000000,          !- Vertex 3 X-coordinate {m}
    3.600000000000,          !- Vertex 3 Y-coordinate {m}
    8.550000000000,          !- Vertex 3 Z-coordinate {m}
    7.450000000000,          !- Vertex 4 X-coordinate {m}
    3.600000000000,          !- Vertex 4 Y-coordinate {m}
    11.400000000000;         !- Vertex 4 Z-coordinate {m}

BuildingSurface:Detailed,
    1EF0EA,                  !- Name
    Wall,                    !- Surface Type
    Interior Wall,           !- Construction Name
    CIRCULA_P4,              !- Zone Name
    Surface,                 !- Outside Boundary Condition
    52E8D2,                  !- Outside Boundary Condition Object
    NoSun,                   !- Sun Exposure
    NoWind,                  !- Wind Exposure
    ,                        !- View Factor to Ground
    4,                       !- Number of Vertices
    7.450000000000,          !- Vertex 1 X-coordinate {m}
    3.600000000000,          !- Vertex 1 Y-coordinate {m}
    11.400000000000,         !- Vertex 1 Z-coordinate {m}
    7.450000000000,          !- Vertex 2 X-coordinate {m}
    3.600000000000,          !- Vertex 2 Y-coordinate {m}
    8.550000000000,          !- Vertex 2 Z-coordinate {m}
    7.450000000000,          !- Vertex 3 X-coordinate {m}
    0.000000000000,          !- Vertex 3 Y-coordinate {m}
    8.550000000000,          !- Vertex 3 Z-coordinate {m}
    7.450000000000,          !- Vertex 4 X-coordinate {m}
    0.000000000000,          !- Vertex 4 Y-coordinate {m}
    11.400000000000;         !- Vertex 4 Z-coordinate {m}

BuildingSurface:Detailed,
    BC408F,                  !- Name
    Wall,                    !- Surface Type
    Interior Wall,           !- Construction Name
    CIRCULA_P4,              !- Zone Name
    Surface,                 !- Outside Boundary Condition
    3D56D5,                  !- Outside Boundary Condition Object
    NoSun,                   !- Sun Exposure
    NoWind,                  !- Wind Exposure
    ,                        !- View Factor to Ground
    4,                       !- Number of Vertices
    9.700000000000,          !- Vertex 1 X-coordinate {m}
    -3.600000000000,         !- Vertex 1 Y-coordinate {m}
    11.400000000000,         !- Vertex 1 Z-coordinate {m}
    9.700000000000,          !- Vertex 2 X-coordinate {m}
    -3.600000000000,         !- Vertex 2 Y-coordinate {m}
    8.550000000000,          !- Vertex 2 Z-coordinate {m}
    9.700000000000,          !- Vertex 3 X-coordinate {m}
    0.000000000000,          !- Vertex 3 Y-coordinate {m}
    8.550000000000,          !- Vertex 3 Z-coordinate {m}
    9.700000000000,          !- Vertex 4 X-coordinate {m}
    0.000000000000,          !- Vertex 4 Y-coordinate {m}
    11.400000000000;         !- Vertex 4 Z-coordinate {m}

BuildingSurface:Detailed,
    715667,                  !- Name
    Floor,                   !- Surface Type
    Interior Floor,          !- Construction Name
    CIRCULA_P5,              !- Zone Name
    Surface,                 !- Outside Boundary Condition
    CA1F33,                  !- Outside Boundary Condition Object
    NoSun,                   !- Sun Exposure
    NoWind,                  !- Wind Exposure
    ,                        !- View Factor to Ground
    4,                       !- Number of Vertices
    9.700000000000,          !- Vertex 1 X-coordinate {m}
    3.600000000000,          !- Vertex 1 Y-coordinate {m}
    11.400000000000,         !- Vertex 1 Z-coordinate {m}
    9.700000000000,          !- Vertex 2 X-coordinate {m}
    -3.600000000000,         !- Vertex 2 Y-coordinate {m}
    11.400000000000,         !- Vertex 2 Z-coordinate {m}
    7.450000000000,          !- Vertex 3 X-coordinate {m}
    -3.600000000000,         !- Vertex 3 Y-coordinate {m}
    11.400000000000,         !- Vertex 3 Z-coordinate {m}
    7.450000000000,          !- Vertex 4 X-coordinate {m}
    3.600000000000,          !- Vertex 4 Y-coordinate {m}
    11.400000000000;         !- Vertex 4 Z-coordinate {m}

BuildingSurface:Detailed,
    17052C,                  !- Name
    Roof,                    !- Surface Type
    Exterior Roof,           !- Construction Name
    CIRCULA_P5,              !- Zone Name
    Outdoors,                !- Outside Boundary Condition
    ,                        !- Outside Boundary Condition Object
    SunExposed,              !- Sun Exposure
    WindExposed,             !- Wind Exposure
    ,                        !- View Factor to Ground
    4,                       !- Number of Vertices
    7.450000000000,          !- Vertex 1 X-coordinate {m}
    3.600000000000,          !- Vertex 1 Y-coordinate {m}
    14.250000000000,         !- Vertex 1 Z-coordinate {m}
    7.450000000000,          !- Vertex 2 X-coordinate {m}
    -3.600000000000,         !- Vertex 2 Y-coordinate {m}
    14.250000000000,         !- Vertex 2 Z-coordinate {m}
    9.700000000000,          !- Vertex 3 X-coordinate {m}
    -3.600000000000,         !- Vertex 3 Y-coordinate {m}
    14.250000000000,         !- Vertex 3 Z-coordinate {m}
    9.700000000000,          !- Vertex 4 X-coordinate {m}
    3.600000000000,          !- Vertex 4 Y-coordinate {m}
    14.250000000000;         !- Vertex 4 Z-coordinate {m}

BuildingSurface:Detailed,
    35F374,                  !- Name
    Wall,                    !- Surface Type
    Interior Wall,           !- Construction Name
    CIRCULA_P5,              !- Zone Name
    Surface,                 !- Outside Boundary Condition
    788A99,                  !- Outside Boundary Condition Object
    NoSun,                   !- Sun Exposure
    NoWind,                  !- Wind Exposure
    ,                        !- View Factor to Ground
    4,                       !- Number of Vertices
    9.700000000000,          !- Vertex 1 X-coordinate {m}
    0.000000000000,          !- Vertex 1 Y-coordinate {m}
    14.250000000000,         !- Vertex 1 Z-coordinate {m}
    9.700000000000,          !- Vertex 2 X-coordinate {m}
    0.000000000000,          !- Vertex 2 Y-coordinate {m}
    11.400000000000,         !- Vertex 2 Z-coordinate {m}
    9.700000000000,          !- Vertex 3 X-coordinate {m}
    3.600000000000,          !- Vertex 3 Y-coordinate {m}
    11.400000000000,         !- Vertex 3 Z-coordinate {m}
    9.700000000000,          !- Vertex 4 X-coordinate {m}
    3.600000000000,          !- Vertex 4 Y-coordinate {m}
    14.250000000000;         !- Vertex 4 Z-coordinate {m}

BuildingSurface:Detailed,
    53782F,                  !- Name
    Wall,                    !- Surface Type
    Exterior Wall South,     !- Construction Name
    CIRCULA_P5,              !- Zone Name
    Outdoors,                !- Outside Boundary Condition
    ,                        !- Outside Boundary Condition Object
    SunExposed,              !- Sun Exposure
    WindExposed,             !- Wind Exposure
    ,                        !- View Factor to Ground
    4,                       !- Number of Vertices
    7.450000000000,          !- Vertex 1 X-coordinate {m}
    -3.600000000000,         !- Vertex 1 Y-coordinate {m}
    14.250000000000,         !- Vertex 1 Z-coordinate {m}
    7.450000000000,          !- Vertex 2 X-coordinate {m}
    -3.600000000000,         !- Vertex 2 Y-coordinate {m}
    11.400000000000,         !- Vertex 2 Z-coordinate {m}
    9.700000000000,          !- Vertex 3 X-coordinate {m}
    -3.600000000000,         !- Vertex 3 Y-coordinate {m}
    11.400000000000,         !- Vertex 3 Z-coordinate {m}
    9.700000000000,          !- Vertex 4 X-coordinate {m}
    -3.600000000000,         !- Vertex 4 Y-coordinate {m}
    14.250000000000;         !- Vertex 4 Z-coordinate {m}

BuildingSurface:Detailed,
    627CF6,                  !- Name
    Wall,                    !- Surface Type
    Interior Wall,           !- Construction Name
    CIRCULA_P5,              !- Zone Name
    Surface,                 !- Outside Boundary Condition
    EE55FD,                  !- Outside Boundary Condition Object
    NoSun,                   !- Sun Exposure
    NoWind,                  !- Wind Exposure
    ,                        !- View Factor to Ground
    4,                       !- Number of Vertices
    7.450000000000,          !- Vertex 1 X-coordinate {m}
    0.000000000000,          !- Vertex 1 Y-coordinate {m}
    14.250000000000,         !- Vertex 1 Z-coordinate {m}
    7.450000000000,          !- Vertex 2 X-coordinate {m}
    0.000000000000,          !- Vertex 2 Y-coordinate {m}
    11.400000000000,         !- Vertex 2 Z-coordinate {m}
    7.450000000000,          !- Vertex 3 X-coordinate {m}
    -3.600000000000,         !- Vertex 3 Y-coordinate {m}
    11.400000000000,         !- Vertex 3 Z-coordinate {m}
    7.450000000000,          !- Vertex 4 X-coordinate {m}
    -3.600000000000,         !- Vertex 4 Y-coordinate {m}
    14.250000000000;         !- Vertex 4 Z-coordinate {m}

BuildingSurface:Detailed,
    DCB2E8,                  !- Name
    Wall,                    !- Surface Type
    Exterior Wall North,     !- Construction Name
    CIRCULA_P5,              !- Zone Name
    Outdoors,                !- Outside Boundary Condition
    ,                        !- Outside Boundary Condition Object
    SunExposed,              !- Sun Exposure
    WindExposed,             !- Wind Exposure
    ,                        !- View Factor to Ground
    4,                       !- Number of Vertices
    9.700000000000,          !- Vertex 1 X-coordinate {m}
    3.600000000000,          !- Vertex 1 Y-coordinate {m}
    14.250000000000,         !- Vertex 1 Z-coordinate {m}
    9.700000000000,          !- Vertex 2 X-coordinate {m}
    3.600000000000,          !- Vertex 2 Y-coordinate {m}
    11.400000000000,         !- Vertex 2 Z-coordinate {m}
    7.450000000000,          !- Vertex 3 X-coordinate {m}
    3.600000000000,          !- Vertex 3 Y-coordinate {m}
    11.400000000000,         !- Vertex 3 Z-coordinate {m}
    7.450000000000,          !- Vertex 4 X-coordinate {m}
    3.600000000000,          !- Vertex 4 Y-coordinate {m}
    14.250000000000;         !- Vertex 4 Z-coordinate {m}

BuildingSurface:Detailed,
    2F4343,                  !- Name
    Wall,                    !- Surface Type
    Interior Wall,           !- Construction Name
    CIRCULA_P5,              !- Zone Name
    Surface,                 !- Outside Boundary Condition
    15C2BC,                  !- Outside Boundary Condition Object
    NoSun,                   !- Sun Exposure
    NoWind,                  !- Wind Exposure
    ,                        !- View Factor to Ground
    4,                       !- Number of Vertices
    7.450000000000,          !- Vertex 1 X-coordinate {m}
    3.600000000000,          !- Vertex 1 Y-coordinate {m}
    14.250000000000,         !- Vertex 1 Z-coordinate {m}
    7.450000000000,          !- Vertex 2 X-coordinate {m}
    3.600000000000,          !- Vertex 2 Y-coordinate {m}
    11.400000000000,         !- Vertex 2 Z-coordinate {m}
    7.450000000000,          !- Vertex 3 X-coordinate {m}
    0.000000000000,          !- Vertex 3 Y-coordinate {m}
    11.400000000000,         !- Vertex 3 Z-coordinate {m}
    7.450000000000,          !- Vertex 4 X-coordinate {m}
    0.000000000000,          !- Vertex 4 Y-coordinate {m}
    14.250000000000;         !- Vertex 4 Z-coordinate {m}

BuildingSurface:Detailed,
    548C7F,                  !- Name
    Wall,                    !- Surface Type
    Interior Wall,           !- Construction Name
    CIRCULA_P5,              !- Zone Name
    Surface,                 !- Outside Boundary Condition
    B0807E,                  !- Outside Boundary Condition Object
    NoSun,                   !- Sun Exposure
    NoWind,                  !- Wind Exposure
    ,                        !- View Factor to Ground
    4,                       !- Number of Vertices
    9.700000000000,          !- Vertex 1 X-coordinate {m}
    -3.600000000000,         !- Vertex 1 Y-coordinate {m}
    14.250000000000,         !- Vertex 1 Z-coordinate {m}
    9.700000000000,          !- Vertex 2 X-coordinate {m}
    -3.600000000000,         !- Vertex 2 Y-coordinate {m}
    11.400000000000,         !- Vertex 2 Z-coordinate {m}
    9.700000000000,          !- Vertex 3 X-coordinate {m}
    0.000000000000,          !- Vertex 3 Y-coordinate {m}
    11.400000000000,         !- Vertex 3 Z-coordinate {m}
    9.700000000000,          !- Vertex 4 X-coordinate {m}
    0.000000000000,          !- Vertex 4 Y-coordinate {m}
    14.250000000000;         !- Vertex 4 Z-coordinate {m}

BuildingSurface:Detailed,
    56647D,                  !- Name
    Floor,                   !- Surface Type
    Interior Floor,          !- Construction Name
    APTO04_P2,               !- Zone Name
    Surface,                 !- Outside Boundary Condition
    C11558,                  !- Outside Boundary Condition Object
    NoSun,                   !- Sun Exposure
    NoWind,                  !- Wind Exposure
    0.0,                     !- View Factor to Ground
    8,                       !- Number of Vertices
    15.800000000000,         !- Vertex 1 X-coordinate {m}
    0.000000000000,          !- Vertex 1 Y-coordinate {m}
    2.850000000000,          !- Vertex 1 Z-coordinate {m}
    15.800000000000,         !- Vertex 2 X-coordinate {m}
    -0.950000000000,         !- Vertex 2 Y-coordinate {m}
    2.850000000000,          !- Vertex 2 Z-coordinate {m}
    17.150000000000,         !- Vertex 3 X-coordinate {m}
    -0.950000000000,         !- Vertex 3 Y-coordinate {m}
    2.850000000000,          !- Vertex 3 Z-coordinate {m}
    17.150000000000,         !- Vertex 4 X-coordinate {m}
    -6.750000000000,         !- Vertex 4 Y-coordinate {m}
    2.850000000000,          !- Vertex 4 Z-coordinate {m}
    11.350000000000,         !- Vertex 5 X-coordinate {m}
    -6.750000000000,         !- Vertex 5 Y-coordinate {m}
    2.850000000000,          !- Vertex 5 Z-coordinate {m}
    11.350000000000,         !- Vertex 6 X-coordinate {m}
    -3.600000000000,         !- Vertex 6 Y-coordinate {m}
    2.850000000000,          !- Vertex 6 Z-coordinate {m}
    9.700000000000,          !- Vertex 7 X-coordinate {m}
    -3.600000000000,         !- Vertex 7 Y-coordinate {m}
    2.850000000000,          !- Vertex 7 Z-coordinate {m}
    9.700000000000,          !- Vertex 8 X-coordinate {m}
    0.000000000000,          !- Vertex 8 Y-coordinate {m}
    2.850000000000;          !- Vertex 8 Z-coordinate {m}

BuildingSurface:Detailed,
    1FF8F7,                  !- Name
    Ceiling,                 !- Surface Type
    Interior Ceiling,        !- Construction Name
    APTO04_P2,               !- Zone Name
    Surface,                 !- Outside Boundary Condition
    74BC0E,                  !- Outside Boundary Condition Object
    NoSun,                   !- Sun Exposure
    NoWind,                  !- Wind Exposure
    ,                        !- View Factor to Ground
    8,                       !- Number of Vertices
    9.700000000000,          !- Vertex 1 X-coordinate {m}
    0.000000000000,          !- Vertex 1 Y-coordinate {m}
    5.700000000000,          !- Vertex 1 Z-coordinate {m}
    9.700000000000,          !- Vertex 2 X-coordinate {m}
    -3.600000000000,         !- Vertex 2 Y-coordinate {m}
    5.700000000000,          !- Vertex 2 Z-coordinate {m}
    11.350000000000,         !- Vertex 3 X-coordinate {m}
    -3.600000000000,         !- Vertex 3 Y-coordinate {m}
    5.700000000000,          !- Vertex 3 Z-coordinate {m}
    11.350000000000,         !- Vertex 4 X-coordinate {m}
    -6.750000000000,         !- Vertex 4 Y-coordinate {m}
    5.700000000000,          !- Vertex 4 Z-coordinate {m}
    17.150000000000,         !- Vertex 5 X-coordinate {m}
    -6.750000000000,         !- Vertex 5 Y-coordinate {m}
    5.700000000000,          !- Vertex 5 Z-coordinate {m}
    17.150000000000,         !- Vertex 6 X-coordinate {m}
    -0.950000000000,         !- Vertex 6 Y-coordinate {m}
    5.700000000000,          !- Vertex 6 Z-coordinate {m}
    15.800000000000,         !- Vertex 7 X-coordinate {m}
    -0.950000000000,         !- Vertex 7 Y-coordinate {m}
    5.700000000000,          !- Vertex 7 Z-coordinate {m}
    15.800000000000,         !- Vertex 8 X-coordinate {m}
    0.000000000000,          !- Vertex 8 Y-coordinate {m}
    5.700000000000;          !- Vertex 8 Z-coordinate {m}

BuildingSurface:Detailed,
    E3B826,                  !- Name
    Wall,                    !- Surface Type
    Interior Wall,           !- Construction Name
    APTO04_P2,               !- Zone Name
    Surface,                 !- Outside Boundary Condition
    4621B0,                  !- Outside Boundary Condition Object
    NoSun,                   !- Sun Exposure
    NoWind,                  !- Wind Exposure
    ,                        !- View Factor to Ground
    4,                       !- Number of Vertices
    15.800000000000,         !- Vertex 1 X-coordinate {m}
    0.000000000000,          !- Vertex 1 Y-coordinate {m}
    5.700000000000,          !- Vertex 1 Z-coordinate {m}
    15.800000000000,         !- Vertex 2 X-coordinate {m}
    0.000000000000,          !- Vertex 2 Y-coordinate {m}
    2.850000000000,          !- Vertex 2 Z-coordinate {m}
    9.700000000000,          !- Vertex 3 X-coordinate {m}
    0.000000000000,          !- Vertex 3 Y-coordinate {m}
    2.850000000000,          !- Vertex 3 Z-coordinate {m}
    9.700000000000,          !- Vertex 4 X-coordinate {m}
    0.000000000000,          !- Vertex 4 Y-coordinate {m}
    5.700000000000;          !- Vertex 4 Z-coordinate {m}

BuildingSurface:Detailed,
    2E9E79,                  !- Name
    Wall,                    !- Surface Type
    Exterior Wall East,      !- Construction Name
    APTO04_P2,               !- Zone Name
    Outdoors,                !- Outside Boundary Condition
    ,                        !- Outside Boundary Condition Object
    SunExposed,              !- Sun Exposure
    WindExposed,             !- Wind Exposure
    ,                        !- View Factor to Ground
    4,                       !- Number of Vertices
    15.800000000000,         !- Vertex 1 X-coordinate {m}
    -0.950000000000,         !- Vertex 1 Y-coordinate {m}
    5.700000000000,          !- Vertex 1 Z-coordinate {m}
    15.800000000000,         !- Vertex 2 X-coordinate {m}
    -0.950000000000,         !- Vertex 2 Y-coordinate {m}
    2.850000000000,          !- Vertex 2 Z-coordinate {m}
    15.800000000000,         !- Vertex 3 X-coordinate {m}
    0.000000000000,          !- Vertex 3 Y-coordinate {m}
    2.850000000000,          !- Vertex 3 Z-coordinate {m}
    15.800000000000,         !- Vertex 4 X-coordinate {m}
    0.000000000000,          !- Vertex 4 Y-coordinate {m}
    5.700000000000;          !- Vertex 4 Z-coordinate {m}

BuildingSurface:Detailed,
    CBA1F7,                  !- Name
    Wall,                    !- Surface Type
    Exterior Wall North,     !- Construction Name
    APTO04_P2,               !- Zone Name
    Outdoors,                !- Outside Boundary Condition
    ,                        !- Outside Boundary Condition Object
    SunExposed,              !- Sun Exposure
    WindExposed,             !- Wind Exposure
    ,                        !- View Factor to Ground
    4,                       !- Number of Vertices
    17.150000000000,         !- Vertex 1 X-coordinate {m}
    -0.950000000000,         !- Vertex 1 Y-coordinate {m}
    5.700000000000,          !- Vertex 1 Z-coordinate {m}
    17.150000000000,         !- Vertex 2 X-coordinate {m}
    -0.950000000000,         !- Vertex 2 Y-coordinate {m}
    2.850000000000,          !- Vertex 2 Z-coordinate {m}
    15.800000000000,         !- Vertex 3 X-coordinate {m}
    -0.950000000000,         !- Vertex 3 Y-coordinate {m}
    2.850000000000,          !- Vertex 3 Z-coordinate {m}
    15.800000000000,         !- Vertex 4 X-coordinate {m}
    -0.950000000000,         !- Vertex 4 Y-coordinate {m}
    5.700000000000;          !- Vertex 4 Z-coordinate {m}

BuildingSurface:Detailed,
    667FC1,                  !- Name
    Wall,                    !- Surface Type
    Exterior Wall East,      !- Construction Name
    APTO04_P2,               !- Zone Name
    Outdoors,                !- Outside Boundary Condition
    ,                        !- Outside Boundary Condition Object
    SunExposed,              !- Sun Exposure
    WindExposed,             !- Wind Exposure
    ,                        !- View Factor to Ground
    4,                       !- Number of Vertices
    17.150000000000,         !- Vertex 1 X-coordinate {m}
    -6.750000000000,         !- Vertex 1 Y-coordinate {m}
    5.700000000000,          !- Vertex 1 Z-coordinate {m}
    17.150000000000,         !- Vertex 2 X-coordinate {m}
    -6.750000000000,         !- Vertex 2 Y-coordinate {m}
    2.850000000000,          !- Vertex 2 Z-coordinate {m}
    17.150000000000,         !- Vertex 3 X-coordinate {m}
    -0.950000000000,         !- Vertex 3 Y-coordinate {m}
    2.850000000000,          !- Vertex 3 Z-coordinate {m}
    17.150000000000,         !- Vertex 4 X-coordinate {m}
    -0.950000000000,         !- Vertex 4 Y-coordinate {m}
    5.700000000000;          !- Vertex 4 Z-coordinate {m}

BuildingSurface:Detailed,
    A705A5,                  !- Name
    Wall,                    !- Surface Type
    Exterior Wall South,     !- Construction Name
    APTO04_P2,               !- Zone Name
    Outdoors,                !- Outside Boundary Condition
    ,                        !- Outside Boundary Condition Object
    SunExposed,              !- Sun Exposure
    WindExposed,             !- Wind Exposure
    ,                        !- View Factor to Ground
    4,                       !- Number of Vertices
    11.350000000000,         !- Vertex 1 X-coordinate {m}
    -6.750000000000,         !- Vertex 1 Y-coordinate {m}
    5.700000000000,          !- Vertex 1 Z-coordinate {m}
    11.350000000000,         !- Vertex 2 X-coordinate {m}
    -6.750000000000,         !- Vertex 2 Y-coordinate {m}
    2.850000000000,          !- Vertex 2 Z-coordinate {m}
    17.150000000000,         !- Vertex 3 X-coordinate {m}
    -6.750000000000,         !- Vertex 3 Y-coordinate {m}
    2.850000000000,          !- Vertex 3 Z-coordinate {m}
    17.150000000000,         !- Vertex 4 X-coordinate {m}
    -6.750000000000,         !- Vertex 4 Y-coordinate {m}
    5.700000000000;          !- Vertex 4 Z-coordinate {m}

BuildingSurface:Detailed,
    5E5578,                  !- Name
    Wall,                    !- Surface Type
    Exterior Wall West,      !- Construction Name
    APTO04_P2,               !- Zone Name
    Outdoors,                !- Outside Boundary Condition
    ,                        !- Outside Boundary Condition Object
    SunExposed,              !- Sun Exposure
    WindExposed,             !- Wind Exposure
    ,                        !- View Factor to Ground
    4,                       !- Number of Vertices
    11.350000000000,         !- Vertex 1 X-coordinate {m}
    -3.600000000000,         !- Vertex 1 Y-coordinate {m}
    5.700000000000,          !- Vertex 1 Z-coordinate {m}
    11.350000000000,         !- Vertex 2 X-coordinate {m}
    -3.600000000000,         !- Vertex 2 Y-coordinate {m}
    2.850000000000,          !- Vertex 2 Z-coordinate {m}
    11.350000000000,         !- Vertex 3 X-coordinate {m}
    -6.750000000000,         !- Vertex 3 Y-coordinate {m}
    2.850000000000,          !- Vertex 3 Z-coordinate {m}
    11.350000000000,         !- Vertex 4 X-coordinate {m}
    -6.750000000000,         !- Vertex 4 Y-coordinate {m}
    5.700000000000;          !- Vertex 4 Z-coordinate {m}

BuildingSurface:Detailed,
    972A52,                  !- Name
    Wall,                    !- Surface Type
    Interior Wall,           !- Construction Name
    APTO04_P2,               !- Zone Name
    Surface,                 !- Outside Boundary Condition
    76A5B8,                  !- Outside Boundary Condition Object
    NoSun,                   !- Sun Exposure
    NoWind,                  !- Wind Exposure
    ,                        !- View Factor to Ground
    4,                       !- Number of Vertices
    9.700000000000,          !- Vertex 1 X-coordinate {m}
    0.000000000000,          !- Vertex 1 Y-coordinate {m}
    5.700000000000,          !- Vertex 1 Z-coordinate {m}
    9.700000000000,          !- Vertex 2 X-coordinate {m}
    0.000000000000,          !- Vertex 2 Y-coordinate {m}
    2.850000000000,          !- Vertex 2 Z-coordinate {m}
    9.700000000000,          !- Vertex 3 X-coordinate {m}
    -3.600000000000,         !- Vertex 3 Y-coordinate {m}
    2.850000000000,          !- Vertex 3 Z-coordinate {m}
    9.700000000000,          !- Vertex 4 X-coordinate {m}
    -3.600000000000,         !- Vertex 4 Y-coordinate {m}
    5.700000000000;          !- Vertex 4 Z-coordinate {m}

BuildingSurface:Detailed,
    3B2D52,                  !- Name
    Wall,                    !- Surface Type
    Exterior Wall South,     !- Construction Name
    APTO04_P2,               !- Zone Name
    Outdoors,                !- Outside Boundary Condition
    ,                        !- Outside Boundary Condition Object
    SunExposed,              !- Sun Exposure
    WindExposed,             !- Wind Exposure
    ,                        !- View Factor to Ground
    4,                       !- Number of Vertices
    9.700000000000,          !- Vertex 1 X-coordinate {m}
    -3.600000000000,         !- Vertex 1 Y-coordinate {m}
    5.700000000000,          !- Vertex 1 Z-coordinate {m}
    9.700000000000,          !- Vertex 2 X-coordinate {m}
    -3.600000000000,         !- Vertex 2 Y-coordinate {m}
    2.850000000000,          !- Vertex 2 Z-coordinate {m}
    11.350000000000,         !- Vertex 3 X-coordinate {m}
    -3.600000000000,         !- Vertex 3 Y-coordinate {m}
    2.850000000000,          !- Vertex 3 Z-coordinate {m}
    11.350000000000,         !- Vertex 4 X-coordinate {m}
    -3.600000000000,         !- Vertex 4 Y-coordinate {m}
    5.700000000000;          !- Vertex 4 Z-coordinate {m}

BuildingSurface:Detailed,
    9F1A06,                  !- Name
    Floor,                   !- Surface Type
    Interior Floor,          !- Construction Name
    APTO01_P2,               !- Zone Name
    Surface,                 !- Outside Boundary Condition
    21A2D4,                  !- Outside Boundary Condition Object
    NoSun,                   !- Sun Exposure
    NoWind,                  !- Wind Exposure
    ,                        !- View Factor to Ground
    8,                       !- Number of Vertices
    7.450000000000,          !- Vertex 1 X-coordinate {m}
    0.000000000000,          !- Vertex 1 Y-coordinate {m}
    2.850000000000,          !- Vertex 1 Z-coordinate {m}
    7.450000000000,          !- Vertex 2 X-coordinate {m}
    -3.600000000000,         !- Vertex 2 Y-coordinate {m}
    2.850000000000,          !- Vertex 2 Z-coordinate {m}
    5.800000000000,          !- Vertex 3 X-coordinate {m}
    -3.600000000000,         !- Vertex 3 Y-coordinate {m}
    2.850000000000,          !- Vertex 3 Z-coordinate {m}
    5.800000000000,          !- Vertex 4 X-coordinate {m}
    -6.750000000000,         !- Vertex 4 Y-coordinate {m}
    2.850000000000,          !- Vertex 4 Z-coordinate {m}
    0.000000000000,          !- Vertex 5 X-coordinate {m}
    -6.750000000000,         !- Vertex 5 Y-coordinate {m}
    2.850000000000,          !- Vertex 5 Z-coordinate {m}
    0.000000000000,          !- Vertex 6 X-coordinate {m}
    -0.950000000000,         !- Vertex 6 Y-coordinate {m}
    2.850000000000,          !- Vertex 6 Z-coordinate {m}
    1.350000000000,          !- Vertex 7 X-coordinate {m}
    -0.950000000000,         !- Vertex 7 Y-coordinate {m}
    2.850000000000,          !- Vertex 7 Z-coordinate {m}
    1.350000000000,          !- Vertex 8 X-coordinate {m}
    0.000000000000,          !- Vertex 8 Y-coordinate {m}
    2.850000000000;          !- Vertex 8 Z-coordinate {m}

BuildingSurface:Detailed,
    7DEC70,                  !- Name
    Wall,                    !- Surface Type
    Interior Wall,           !- Construction Name
    APTO01_P2,               !- Zone Name
    Surface,                 !- Outside Boundary Condition
    20BFE6,                  !- Outside Boundary Condition Object
    NoSun,                   !- Sun Exposure
    NoWind,                  !- Wind Exposure
    ,                        !- View Factor to Ground
    4,                       !- Number of Vertices
    7.450000000000,          !- Vertex 1 X-coordinate {m}
    0.000000000000,          !- Vertex 1 Y-coordinate {m}
    5.700000000000,          !- Vertex 1 Z-coordinate {m}
    7.450000000000,          !- Vertex 2 X-coordinate {m}
    0.000000000000,          !- Vertex 2 Y-coordinate {m}
    2.850000000000,          !- Vertex 2 Z-coordinate {m}
    1.350000000000,          !- Vertex 3 X-coordinate {m}
    0.000000000000,          !- Vertex 3 Y-coordinate {m}
    2.850000000000,          !- Vertex 3 Z-coordinate {m}
    1.350000000000,          !- Vertex 4 X-coordinate {m}
    0.000000000000,          !- Vertex 4 Y-coordinate {m}
    5.700000000000;          !- Vertex 4 Z-coordinate {m}

BuildingSurface:Detailed,
    245E88,                  !- Name
    Wall,                    !- Surface Type
    Exterior Wall West,      !- Construction Name
    APTO01_P2,               !- Zone Name
    Outdoors,                !- Outside Boundary Condition
    ,                        !- Outside Boundary Condition Object
    SunExposed,              !- Sun Exposure
    WindExposed,             !- Wind Exposure
    ,                        !- View Factor to Ground
    4,                       !- Number of Vertices
    1.350000000000,          !- Vertex 1 X-coordinate {m}
    0.000000000000,          !- Vertex 1 Y-coordinate {m}
    5.700000000000,          !- Vertex 1 Z-coordinate {m}
    1.350000000000,          !- Vertex 2 X-coordinate {m}
    0.000000000000,          !- Vertex 2 Y-coordinate {m}
    2.850000000000,          !- Vertex 2 Z-coordinate {m}
    1.350000000000,          !- Vertex 3 X-coordinate {m}
    -0.950000000000,         !- Vertex 3 Y-coordinate {m}
    2.850000000000,          !- Vertex 3 Z-coordinate {m}
    1.350000000000,          !- Vertex 4 X-coordinate {m}
    -0.950000000000,         !- Vertex 4 Y-coordinate {m}
    5.700000000000;          !- Vertex 4 Z-coordinate {m}

BuildingSurface:Detailed,
    D21F04,                  !- Name
    Wall,                    !- Surface Type
    Exterior Wall West,      !- Construction Name
    APTO01_P2,               !- Zone Name
    Outdoors,                !- Outside Boundary Condition
    ,                        !- Outside Boundary Condition Object
    SunExposed,              !- Sun Exposure
    WindExposed,             !- Wind Exposure
    ,                        !- View Factor to Ground
    4,                       !- Number of Vertices
    0.000000000000,          !- Vertex 1 X-coordinate {m}
    -0.950000000000,         !- Vertex 1 Y-coordinate {m}
    5.700000000000,          !- Vertex 1 Z-coordinate {m}
    0.000000000000,          !- Vertex 2 X-coordinate {m}
    -0.950000000000,         !- Vertex 2 Y-coordinate {m}
    2.850000000000,          !- Vertex 2 Z-coordinate {m}
    0.000000000000,          !- Vertex 3 X-coordinate {m}
    -6.750000000000,         !- Vertex 3 Y-coordinate {m}
    2.850000000000,          !- Vertex 3 Z-coordinate {m}
    0.000000000000,          !- Vertex 4 X-coordinate {m}
    -6.750000000000,         !- Vertex 4 Y-coordinate {m}
    5.700000000000;          !- Vertex 4 Z-coordinate {m}

BuildingSurface:Detailed,
    4529F4,                  !- Name
    Ceiling,                 !- Surface Type
    Interior Ceiling,        !- Construction Name
    APTO01_P2,               !- Zone Name
    Surface,                 !- Outside Boundary Condition
    66D5AA,                  !- Outside Boundary Condition Object
    NoSun,                   !- Sun Exposure
    NoWind,                  !- Wind Exposure
    ,                        !- View Factor to Ground
    8,                       !- Number of Vertices
    0.000000000000,          !- Vertex 1 X-coordinate {m}
    -0.950000000000,         !- Vertex 1 Y-coordinate {m}
    5.700000000000,          !- Vertex 1 Z-coordinate {m}
    0.000000000000,          !- Vertex 2 X-coordinate {m}
    -6.750000000000,         !- Vertex 2 Y-coordinate {m}
    5.700000000000,          !- Vertex 2 Z-coordinate {m}
    5.800000000000,          !- Vertex 3 X-coordinate {m}
    -6.750000000000,         !- Vertex 3 Y-coordinate {m}
    5.700000000000,          !- Vertex 3 Z-coordinate {m}
    5.800000000000,          !- Vertex 4 X-coordinate {m}
    -3.600000000000,         !- Vertex 4 Y-coordinate {m}
    5.700000000000,          !- Vertex 4 Z-coordinate {m}
    7.450000000000,          !- Vertex 5 X-coordinate {m}
    -3.600000000000,         !- Vertex 5 Y-coordinate {m}
    5.700000000000,          !- Vertex 5 Z-coordinate {m}
    7.450000000000,          !- Vertex 6 X-coordinate {m}
    0.000000000000,          !- Vertex 6 Y-coordinate {m}
    5.700000000000,          !- Vertex 6 Z-coordinate {m}
    1.350000000000,          !- Vertex 7 X-coordinate {m}
    0.000000000000,          !- Vertex 7 Y-coordinate {m}
    5.700000000000,          !- Vertex 7 Z-coordinate {m}
    1.350000000000,          !- Vertex 8 X-coordinate {m}
    -0.950000000000,         !- Vertex 8 Y-coordinate {m}
    5.700000000000;          !- Vertex 8 Z-coordinate {m}

BuildingSurface:Detailed,
    79DC25,                  !- Name
    Wall,                    !- Surface Type
    Exterior Wall North,     !- Construction Name
    APTO01_P2,               !- Zone Name
    Outdoors,                !- Outside Boundary Condition
    ,                        !- Outside Boundary Condition Object
    SunExposed,              !- Sun Exposure
    WindExposed,             !- Wind Exposure
    ,                        !- View Factor to Ground
    4,                       !- Number of Vertices
    1.350000000000,          !- Vertex 1 X-coordinate {m}
    -0.950000000000,         !- Vertex 1 Y-coordinate {m}
    5.700000000000,          !- Vertex 1 Z-coordinate {m}
    1.350000000000,          !- Vertex 2 X-coordinate {m}
    -0.950000000000,         !- Vertex 2 Y-coordinate {m}
    2.850000000000,          !- Vertex 2 Z-coordinate {m}
    0.000000000000,          !- Vertex 3 X-coordinate {m}
    -0.950000000000,         !- Vertex 3 Y-coordinate {m}
    2.850000000000,          !- Vertex 3 Z-coordinate {m}
    0.000000000000,          !- Vertex 4 X-coordinate {m}
    -0.950000000000,         !- Vertex 4 Y-coordinate {m}
    5.700000000000;          !- Vertex 4 Z-coordinate {m}

BuildingSurface:Detailed,
    D51161,                  !- Name
    Wall,                    !- Surface Type
    Interior Wall,           !- Construction Name
    APTO01_P2,               !- Zone Name
    Surface,                 !- Outside Boundary Condition
    F668AD,                  !- Outside Boundary Condition Object
    NoSun,                   !- Sun Exposure
    NoWind,                  !- Wind Exposure
    ,                        !- View Factor to Ground
    4,                       !- Number of Vertices
    7.450000000000,          !- Vertex 1 X-coordinate {m}
    -3.600000000000,         !- Vertex 1 Y-coordinate {m}
    5.700000000000,          !- Vertex 1 Z-coordinate {m}
    7.450000000000,          !- Vertex 2 X-coordinate {m}
    -3.600000000000,         !- Vertex 2 Y-coordinate {m}
    2.850000000000,          !- Vertex 2 Z-coordinate {m}
    7.450000000000,          !- Vertex 3 X-coordinate {m}
    0.000000000000,          !- Vertex 3 Y-coordinate {m}
    2.850000000000,          !- Vertex 3 Z-coordinate {m}
    7.450000000000,          !- Vertex 4 X-coordinate {m}
    0.000000000000,          !- Vertex 4 Y-coordinate {m}
    5.700000000000;          !- Vertex 4 Z-coordinate {m}

BuildingSurface:Detailed,
    84CA8C,                  !- Name
    Wall,                    !- Surface Type
    Exterior Wall East,      !- Construction Name
    APTO01_P2,               !- Zone Name
    Outdoors,                !- Outside Boundary Condition
    ,                        !- Outside Boundary Condition Object
    SunExposed,              !- Sun Exposure
    WindExposed,             !- Wind Exposure
    ,                        !- View Factor to Ground
    4,                       !- Number of Vertices
    5.800000000000,          !- Vertex 1 X-coordinate {m}
    -6.750000000000,         !- Vertex 1 Y-coordinate {m}
    5.700000000000,          !- Vertex 1 Z-coordinate {m}
    5.800000000000,          !- Vertex 2 X-coordinate {m}
    -6.750000000000,         !- Vertex 2 Y-coordinate {m}
    2.850000000000,          !- Vertex 2 Z-coordinate {m}
    5.800000000000,          !- Vertex 3 X-coordinate {m}
    -3.600000000000,         !- Vertex 3 Y-coordinate {m}
    2.850000000000,          !- Vertex 3 Z-coordinate {m}
    5.800000000000,          !- Vertex 4 X-coordinate {m}
    -3.600000000000,         !- Vertex 4 Y-coordinate {m}
    5.700000000000;          !- Vertex 4 Z-coordinate {m}

BuildingSurface:Detailed,
    2EBC0D,                  !- Name
    Wall,                    !- Surface Type
    Exterior Wall South,     !- Construction Name
    APTO01_P2,               !- Zone Name
    Outdoors,                !- Outside Boundary Condition
    ,                        !- Outside Boundary Condition Object
    SunExposed,              !- Sun Exposure
    WindExposed,             !- Wind Exposure
    ,                        !- View Factor to Ground
    4,                       !- Number of Vertices
    5.800000000000,          !- Vertex 1 X-coordinate {m}
    -3.600000000000,         !- Vertex 1 Y-coordinate {m}
    5.700000000000,          !- Vertex 1 Z-coordinate {m}
    5.800000000000,          !- Vertex 2 X-coordinate {m}
    -3.600000000000,         !- Vertex 2 Y-coordinate {m}
    2.850000000000,          !- Vertex 2 Z-coordinate {m}
    7.450000000000,          !- Vertex 3 X-coordinate {m}
    -3.600000000000,         !- Vertex 3 Y-coordinate {m}
    2.850000000000,          !- Vertex 3 Z-coordinate {m}
    7.450000000000,          !- Vertex 4 X-coordinate {m}
    -3.600000000000,         !- Vertex 4 Y-coordinate {m}
    5.700000000000;          !- Vertex 4 Z-coordinate {m}

BuildingSurface:Detailed,
    CC5D64,                  !- Name
    Wall,                    !- Surface Type
    Exterior Wall South,     !- Construction Name
    APTO01_P2,               !- Zone Name
    Outdoors,                !- Outside Boundary Condition
    ,                        !- Outside Boundary Condition Object
    SunExposed,              !- Sun Exposure
    WindExposed,             !- Wind Exposure
    ,                        !- View Factor to Ground
    4,                       !- Number of Vertices
    0.000000000000,          !- Vertex 1 X-coordinate {m}
    -6.750000000000,         !- Vertex 1 Y-coordinate {m}
    5.700000000000,          !- Vertex 1 Z-coordinate {m}
    0.000000000000,          !- Vertex 2 X-coordinate {m}
    -6.750000000000,         !- Vertex 2 Y-coordinate {m}
    2.850000000000,          !- Vertex 2 Z-coordinate {m}
    5.800000000000,          !- Vertex 3 X-coordinate {m}
    -6.750000000000,         !- Vertex 3 Y-coordinate {m}
    2.850000000000,          !- Vertex 3 Z-coordinate {m}
    5.800000000000,          !- Vertex 4 X-coordinate {m}
    -6.750000000000,         !- Vertex 4 Y-coordinate {m}
    5.700000000000;          !- Vertex 4 Z-coordinate {m}

BuildingSurface:Detailed,
    42BF26,                  !- Name
    Floor,                   !- Surface Type
    Interior Floor,          !- Construction Name
    APTO03_P2,               !- Zone Name
    Surface,                 !- Outside Boundary Condition
    433A49,                  !- Outside Boundary Condition Object
    NoSun,                   !- Sun Exposure
    NoWind,                  !- Wind Exposure
    ,                        !- View Factor to Ground
    8,                       !- Number of Vertices
    17.150000000000,         !- Vertex 1 X-coordinate {m}
    6.750000000000,          !- Vertex 1 Y-coordinate {m}
    2.850000000000,          !- Vertex 1 Z-coordinate {m}
    17.150000000000,         !- Vertex 2 X-coordinate {m}
    0.950000000000,          !- Vertex 2 Y-coordinate {m}
    2.850000000000,          !- Vertex 2 Z-coordinate {m}
    15.800000000000,         !- Vertex 3 X-coordinate {m}
    0.950000000000,          !- Vertex 3 Y-coordinate {m}
    2.850000000000,          !- Vertex 3 Z-coordinate {m}
    15.800000000000,         !- Vertex 4 X-coordinate {m}
    0.000000000000,          !- Vertex 4 Y-coordinate {m}
    2.850000000000,          !- Vertex 4 Z-coordinate {m}
    9.700000000000,          !- Vertex 5 X-coordinate {m}
    0.000000000000,          !- Vertex 5 Y-coordinate {m}
    2.850000000000,          !- Vertex 5 Z-coordinate {m}
    9.700000000000,          !- Vertex 6 X-coordinate {m}
    3.600000000000,          !- Vertex 6 Y-coordinate {m}
    2.850000000000,          !- Vertex 6 Z-coordinate {m}
    11.350000000000,         !- Vertex 7 X-coordinate {m}
    3.600000000000,          !- Vertex 7 Y-coordinate {m}
    2.850000000000,          !- Vertex 7 Z-coordinate {m}
    11.350000000000,         !- Vertex 8 X-coordinate {m}
    6.750000000000,          !- Vertex 8 Y-coordinate {m}
    2.850000000000;          !- Vertex 8 Z-coordinate {m}

BuildingSurface:Detailed,
    64489F,                  !- Name
    Ceiling,                 !- Surface Type
    Interior Ceiling,        !- Construction Name
    APTO03_P2,               !- Zone Name
    Surface,                 !- Outside Boundary Condition
    D61BDE,                  !- Outside Boundary Condition Object
    NoSun,                   !- Sun Exposure
    NoWind,                  !- Wind Exposure
    ,                        !- View Factor to Ground
    8,                       !- Number of Vertices
    11.350000000000,         !- Vertex 1 X-coordinate {m}
    6.750000000000,          !- Vertex 1 Y-coordinate {m}
    5.700000000000,          !- Vertex 1 Z-coordinate {m}
    11.350000000000,         !- Vertex 2 X-coordinate {m}
    3.600000000000,          !- Vertex 2 Y-coordinate {m}
    5.700000000000,          !- Vertex 2 Z-coordinate {m}
    9.700000000000,          !- Vertex 3 X-coordinate {m}
    3.600000000000,          !- Vertex 3 Y-coordinate {m}
    5.700000000000,          !- Vertex 3 Z-coordinate {m}
    9.700000000000,          !- Vertex 4 X-coordinate {m}
    0.000000000000,          !- Vertex 4 Y-coordinate {m}
    5.700000000000,          !- Vertex 4 Z-coordinate {m}
    15.800000000000,         !- Vertex 5 X-coordinate {m}
    0.000000000000,          !- Vertex 5 Y-coordinate {m}
    5.700000000000,          !- Vertex 5 Z-coordinate {m}
    15.800000000000,         !- Vertex 6 X-coordinate {m}
    0.950000000000,          !- Vertex 6 Y-coordinate {m}
    5.700000000000,          !- Vertex 6 Z-coordinate {m}
    17.150000000000,         !- Vertex 7 X-coordinate {m}
    0.950000000000,          !- Vertex 7 Y-coordinate {m}
    5.700000000000,          !- Vertex 7 Z-coordinate {m}
    17.150000000000,         !- Vertex 8 X-coordinate {m}
    6.750000000000,          !- Vertex 8 Y-coordinate {m}
    5.700000000000;          !- Vertex 8 Z-coordinate {m}

BuildingSurface:Detailed,
    1F5680,                  !- Name
    Wall,                    !- Surface Type
    Interior Wall,           !- Construction Name
    APTO03_P2,               !- Zone Name
    Surface,                 !- Outside Boundary Condition
    C03F39,                  !- Outside Boundary Condition Object
    NoSun,                   !- Sun Exposure
    NoWind,                  !- Wind Exposure
    ,                        !- View Factor to Ground
    4,                       !- Number of Vertices
    9.700000000000,          !- Vertex 1 X-coordinate {m}
    3.600000000000,          !- Vertex 1 Y-coordinate {m}
    5.700000000000,          !- Vertex 1 Z-coordinate {m}
    9.700000000000,          !- Vertex 2 X-coordinate {m}
    3.600000000000,          !- Vertex 2 Y-coordinate {m}
    2.850000000000,          !- Vertex 2 Z-coordinate {m}
    9.700000000000,          !- Vertex 3 X-coordinate {m}
    0.000000000000,          !- Vertex 3 Y-coordinate {m}
    2.850000000000,          !- Vertex 3 Z-coordinate {m}
    9.700000000000,          !- Vertex 4 X-coordinate {m}
    0.000000000000,          !- Vertex 4 Y-coordinate {m}
    5.700000000000;          !- Vertex 4 Z-coordinate {m}

BuildingSurface:Detailed,
    339EE3,                  !- Name
    Wall,                    !- Surface Type
    Exterior Wall North,     !- Construction Name
    APTO03_P2,               !- Zone Name
    Outdoors,                !- Outside Boundary Condition
    ,                        !- Outside Boundary Condition Object
    SunExposed,              !- Sun Exposure
    WindExposed,             !- Wind Exposure
    ,                        !- View Factor to Ground
    4,                       !- Number of Vertices
    11.350000000000,         !- Vertex 1 X-coordinate {m}
    3.600000000000,          !- Vertex 1 Y-coordinate {m}
    5.700000000000,          !- Vertex 1 Z-coordinate {m}
    11.350000000000,         !- Vertex 2 X-coordinate {m}
    3.600000000000,          !- Vertex 2 Y-coordinate {m}
    2.850000000000,          !- Vertex 2 Z-coordinate {m}
    9.700000000000,          !- Vertex 3 X-coordinate {m}
    3.600000000000,          !- Vertex 3 Y-coordinate {m}
    2.850000000000,          !- Vertex 3 Z-coordinate {m}
    9.700000000000,          !- Vertex 4 X-coordinate {m}
    3.600000000000,          !- Vertex 4 Y-coordinate {m}
    5.700000000000;          !- Vertex 4 Z-coordinate {m}

BuildingSurface:Detailed,
    ACCD4B,                  !- Name
    Wall,                    !- Surface Type
    Exterior Wall West,      !- Construction Name
    APTO03_P2,               !- Zone Name
    Outdoors,                !- Outside Boundary Condition
    ,                        !- Outside Boundary Condition Object
    SunExposed,              !- Sun Exposure
    WindExposed,             !- Wind Exposure
    ,                        !- View Factor to Ground
    4,                       !- Number of Vertices
    11.350000000000,         !- Vertex 1 X-coordinate {m}
    6.750000000000,          !- Vertex 1 Y-coordinate {m}
    5.700000000000,          !- Vertex 1 Z-coordinate {m}
    11.350000000000,         !- Vertex 2 X-coordinate {m}
    6.750000000000,          !- Vertex 2 Y-coordinate {m}
    2.850000000000,          !- Vertex 2 Z-coordinate {m}
    11.350000000000,         !- Vertex 3 X-coordinate {m}
    3.600000000000,          !- Vertex 3 Y-coordinate {m}
    2.850000000000,          !- Vertex 3 Z-coordinate {m}
    11.350000000000,         !- Vertex 4 X-coordinate {m}
    3.600000000000,          !- Vertex 4 Y-coordinate {m}
    5.700000000000;          !- Vertex 4 Z-coordinate {m}

BuildingSurface:Detailed,
    BCD4CC,                  !- Name
    Wall,                    !- Surface Type
    Exterior Wall North,     !- Construction Name
    APTO03_P2,               !- Zone Name
    Outdoors,                !- Outside Boundary Condition
    ,                        !- Outside Boundary Condition Object
    SunExposed,              !- Sun Exposure
    WindExposed,             !- Wind Exposure
    ,                        !- View Factor to Ground
    4,                       !- Number of Vertices
    17.150000000000,         !- Vertex 1 X-coordinate {m}
    6.750000000000,          !- Vertex 1 Y-coordinate {m}
    5.700000000000,          !- Vertex 1 Z-coordinate {m}
    17.150000000000,         !- Vertex 2 X-coordinate {m}
    6.750000000000,          !- Vertex 2 Y-coordinate {m}
    2.850000000000,          !- Vertex 2 Z-coordinate {m}
    11.350000000000,         !- Vertex 3 X-coordinate {m}
    6.750000000000,          !- Vertex 3 Y-coordinate {m}
    2.850000000000,          !- Vertex 3 Z-coordinate {m}
    11.350000000000,         !- Vertex 4 X-coordinate {m}
    6.750000000000,          !- Vertex 4 Y-coordinate {m}
    5.700000000000;          !- Vertex 4 Z-coordinate {m}

BuildingSurface:Detailed,
    E03339,                  !- Name
    Wall,                    !- Surface Type
    Exterior Wall East,      !- Construction Name
    APTO03_P2,               !- Zone Name
    Outdoors,                !- Outside Boundary Condition
    ,                        !- Outside Boundary Condition Object
    SunExposed,              !- Sun Exposure
    WindExposed,             !- Wind Exposure
    ,                        !- View Factor to Ground
    4,                       !- Number of Vertices
    17.150000000000,         !- Vertex 1 X-coordinate {m}
    0.950000000000,          !- Vertex 1 Y-coordinate {m}
    5.700000000000,          !- Vertex 1 Z-coordinate {m}
    17.150000000000,         !- Vertex 2 X-coordinate {m}
    0.950000000000,          !- Vertex 2 Y-coordinate {m}
    2.850000000000,          !- Vertex 2 Z-coordinate {m}
    17.150000000000,         !- Vertex 3 X-coordinate {m}
    6.750000000000,          !- Vertex 3 Y-coordinate {m}
    2.850000000000,          !- Vertex 3 Z-coordinate {m}
    17.150000000000,         !- Vertex 4 X-coordinate {m}
    6.750000000000,          !- Vertex 4 Y-coordinate {m}
    5.700000000000;          !- Vertex 4 Z-coordinate {m}

BuildingSurface:Detailed,
    1D28CB,                  !- Name
    Wall,                    !- Surface Type
    Exterior Wall South,     !- Construction Name
    APTO03_P2,               !- Zone Name
    Outdoors,                !- Outside Boundary Condition
    ,                        !- Outside Boundary Condition Object
    SunExposed,              !- Sun Exposure
    WindExposed,             !- Wind Exposure
    ,                        !- View Factor to Ground
    4,                       !- Number of Vertices
    15.800000000000,         !- Vertex 1 X-coordinate {m}
    0.950000000000,          !- Vertex 1 Y-coordinate {m}
    5.700000000000,          !- Vertex 1 Z-coordinate {m}
    15.800000000000,         !- Vertex 2 X-coordinate {m}
    0.950000000000,          !- Vertex 2 Y-coordinate {m}
    2.850000000000,          !- Vertex 2 Z-coordinate {m}
    17.150000000000,         !- Vertex 3 X-coordinate {m}
    0.950000000000,          !- Vertex 3 Y-coordinate {m}
    2.850000000000,          !- Vertex 3 Z-coordinate {m}
    17.150000000000,         !- Vertex 4 X-coordinate {m}
    0.950000000000,          !- Vertex 4 Y-coordinate {m}
    5.700000000000;          !- Vertex 4 Z-coordinate {m}

BuildingSurface:Detailed,
    367111,                  !- Name
    Wall,                    !- Surface Type
    Exterior Wall East,      !- Construction Name
    APTO03_P2,               !- Zone Name
    Outdoors,                !- Outside Boundary Condition
    ,                        !- Outside Boundary Condition Object
    SunExposed,              !- Sun Exposure
    WindExposed,             !- Wind Exposure
    ,                        !- View Factor to Ground
    4,                       !- Number of Vertices
    15.800000000000,         !- Vertex 1 X-coordinate {m}
    0.000000000000,          !- Vertex 1 Y-coordinate {m}
    5.700000000000,          !- Vertex 1 Z-coordinate {m}
    15.800000000000,         !- Vertex 2 X-coordinate {m}
    0.000000000000,          !- Vertex 2 Y-coordinate {m}
    2.850000000000,          !- Vertex 2 Z-coordinate {m}
    15.800000000000,         !- Vertex 3 X-coordinate {m}
    0.950000000000,          !- Vertex 3 Y-coordinate {m}
    2.850000000000,          !- Vertex 3 Z-coordinate {m}
    15.800000000000,         !- Vertex 4 X-coordinate {m}
    0.950000000000,          !- Vertex 4 Y-coordinate {m}
    5.700000000000;          !- Vertex 4 Z-coordinate {m}

BuildingSurface:Detailed,
    4621B0,                  !- Name
    Wall,                    !- Surface Type
    Interior Wall,           !- Construction Name
    APTO03_P2,               !- Zone Name
    Surface,                 !- Outside Boundary Condition
    E3B826,                  !- Outside Boundary Condition Object
    NoSun,                   !- Sun Exposure
    NoWind,                  !- Wind Exposure
    ,                        !- View Factor to Ground
    4,                       !- Number of Vertices
    9.700000000000,          !- Vertex 1 X-coordinate {m}
    0.000000000000,          !- Vertex 1 Y-coordinate {m}
    5.700000000000,          !- Vertex 1 Z-coordinate {m}
    9.700000000000,          !- Vertex 2 X-coordinate {m}
    0.000000000000,          !- Vertex 2 Y-coordinate {m}
    2.850000000000,          !- Vertex 2 Z-coordinate {m}
    15.800000000000,         !- Vertex 3 X-coordinate {m}
    0.000000000000,          !- Vertex 3 Y-coordinate {m}
    2.850000000000,          !- Vertex 3 Z-coordinate {m}
    15.800000000000,         !- Vertex 4 X-coordinate {m}
    0.000000000000,          !- Vertex 4 Y-coordinate {m}
    5.700000000000;          !- Vertex 4 Z-coordinate {m}

BuildingSurface:Detailed,
    17FA14,                  !- Name
    Wall,                    !- Surface Type
    Exterior Wall West,      !- Construction Name
    APTO02_P2,               !- Zone Name
    Outdoors,                !- Outside Boundary Condition
    ,                        !- Outside Boundary Condition Object
    SunExposed,              !- Sun Exposure
    WindExposed,             !- Wind Exposure
    ,                        !- View Factor to Ground
    4,                       !- Number of Vertices
    0.000000000000,          !- Vertex 1 X-coordinate {m}
    6.750000000000,          !- Vertex 1 Y-coordinate {m}
    5.700000000000,          !- Vertex 1 Z-coordinate {m}
    0.000000000000,          !- Vertex 2 X-coordinate {m}
    6.750000000000,          !- Vertex 2 Y-coordinate {m}
    2.850000000000,          !- Vertex 2 Z-coordinate {m}
    0.000000000000,          !- Vertex 3 X-coordinate {m}
    0.950000000000,          !- Vertex 3 Y-coordinate {m}
    2.850000000000,          !- Vertex 3 Z-coordinate {m}
    0.000000000000,          !- Vertex 4 X-coordinate {m}
    0.950000000000,          !- Vertex 4 Y-coordinate {m}
    5.700000000000;          !- Vertex 4 Z-coordinate {m}

BuildingSurface:Detailed,
    BFE148,                  !- Name
    Wall,                    !- Surface Type
    Exterior Wall South,     !- Construction Name
    APTO02_P2,               !- Zone Name
    Outdoors,                !- Outside Boundary Condition
    ,                        !- Outside Boundary Condition Object
    SunExposed,              !- Sun Exposure
    WindExposed,             !- Wind Exposure
    ,                        !- View Factor to Ground
    4,                       !- Number of Vertices
    0.000000000000,          !- Vertex 1 X-coordinate {m}
    0.950000000000,          !- Vertex 1 Y-coordinate {m}
    5.700000000000,          !- Vertex 1 Z-coordinate {m}
    0.000000000000,          !- Vertex 2 X-coordinate {m}
    0.950000000000,          !- Vertex 2 Y-coordinate {m}
    2.850000000000,          !- Vertex 2 Z-coordinate {m}
    1.350000000000,          !- Vertex 3 X-coordinate {m}
    0.950000000000,          !- Vertex 3 Y-coordinate {m}
    2.850000000000,          !- Vertex 3 Z-coordinate {m}
    1.350000000000,          !- Vertex 4 X-coordinate {m}
    0.950000000000,          !- Vertex 4 Y-coordinate {m}
    5.700000000000;          !- Vertex 4 Z-coordinate {m}

BuildingSurface:Detailed,
    BB938E,                  !- Name
    Wall,                    !- Surface Type
    Interior Wall,           !- Construction Name
    APTO02_P2,               !- Zone Name
    Surface,                 !- Outside Boundary Condition
    812283,                  !- Outside Boundary Condition Object
    NoSun,                   !- Sun Exposure
    NoWind,                  !- Wind Exposure
    ,                        !- View Factor to Ground
    4,                       !- Number of Vertices
    7.450000000000,          !- Vertex 1 X-coordinate {m}
    0.000000000000,          !- Vertex 1 Y-coordinate {m}
    5.700000000000,          !- Vertex 1 Z-coordinate {m}
    7.450000000000,          !- Vertex 2 X-coordinate {m}
    0.000000000000,          !- Vertex 2 Y-coordinate {m}
    2.850000000000,          !- Vertex 2 Z-coordinate {m}
    7.450000000000,          !- Vertex 3 X-coordinate {m}
    3.600000000000,          !- Vertex 3 Y-coordinate {m}
    2.850000000000,          !- Vertex 3 Z-coordinate {m}
    7.450000000000,          !- Vertex 4 X-coordinate {m}
    3.600000000000,          !- Vertex 4 Y-coordinate {m}
    5.700000000000;          !- Vertex 4 Z-coordinate {m}

BuildingSurface:Detailed,
    F1CF4A,                  !- Name
    Wall,                    !- Surface Type
    Exterior Wall East,      !- Construction Name
    APTO02_P2,               !- Zone Name
    Outdoors,                !- Outside Boundary Condition
    ,                        !- Outside Boundary Condition Object
    SunExposed,              !- Sun Exposure
    WindExposed,             !- Wind Exposure
    ,                        !- View Factor to Ground
    4,                       !- Number of Vertices
    5.800000000000,          !- Vertex 1 X-coordinate {m}
    3.600000000000,          !- Vertex 1 Y-coordinate {m}
    5.700000000000,          !- Vertex 1 Z-coordinate {m}
    5.800000000000,          !- Vertex 2 X-coordinate {m}
    3.600000000000,          !- Vertex 2 Y-coordinate {m}
    2.850000000000,          !- Vertex 2 Z-coordinate {m}
    5.800000000000,          !- Vertex 3 X-coordinate {m}
    6.750000000000,          !- Vertex 3 Y-coordinate {m}
    2.850000000000,          !- Vertex 3 Z-coordinate {m}
    5.800000000000,          !- Vertex 4 X-coordinate {m}
    6.750000000000,          !- Vertex 4 Y-coordinate {m}
    5.700000000000;          !- Vertex 4 Z-coordinate {m}

BuildingSurface:Detailed,
    39C379,                  !- Name
    Wall,                    !- Surface Type
    Exterior Wall North,     !- Construction Name
    APTO02_P2,               !- Zone Name
    Outdoors,                !- Outside Boundary Condition
    ,                        !- Outside Boundary Condition Object
    SunExposed,              !- Sun Exposure
    WindExposed,             !- Wind Exposure
    ,                        !- View Factor to Ground
    4,                       !- Number of Vertices
    7.450000000000,          !- Vertex 1 X-coordinate {m}
    3.600000000000,          !- Vertex 1 Y-coordinate {m}
    5.700000000000,          !- Vertex 1 Z-coordinate {m}
    7.450000000000,          !- Vertex 2 X-coordinate {m}
    3.600000000000,          !- Vertex 2 Y-coordinate {m}
    2.850000000000,          !- Vertex 2 Z-coordinate {m}
    5.800000000000,          !- Vertex 3 X-coordinate {m}
    3.600000000000,          !- Vertex 3 Y-coordinate {m}
    2.850000000000,          !- Vertex 3 Z-coordinate {m}
    5.800000000000,          !- Vertex 4 X-coordinate {m}
    3.600000000000,          !- Vertex 4 Y-coordinate {m}
    5.700000000000;          !- Vertex 4 Z-coordinate {m}

BuildingSurface:Detailed,
    7D743B,                  !- Name
    Wall,                    !- Surface Type
    Exterior Wall West,      !- Construction Name
    APTO02_P2,               !- Zone Name
    Outdoors,                !- Outside Boundary Condition
    ,                        !- Outside Boundary Condition Object
    SunExposed,              !- Sun Exposure
    WindExposed,             !- Wind Exposure
    ,                        !- View Factor to Ground
    4,                       !- Number of Vertices
    1.350000000000,          !- Vertex 1 X-coordinate {m}
    0.950000000000,          !- Vertex 1 Y-coordinate {m}
    5.700000000000,          !- Vertex 1 Z-coordinate {m}
    1.350000000000,          !- Vertex 2 X-coordinate {m}
    0.950000000000,          !- Vertex 2 Y-coordinate {m}
    2.850000000000,          !- Vertex 2 Z-coordinate {m}
    1.350000000000,          !- Vertex 3 X-coordinate {m}
    0.000000000000,          !- Vertex 3 Y-coordinate {m}
    2.850000000000,          !- Vertex 3 Z-coordinate {m}
    1.350000000000,          !- Vertex 4 X-coordinate {m}
    0.000000000000,          !- Vertex 4 Y-coordinate {m}
    5.700000000000;          !- Vertex 4 Z-coordinate {m}

BuildingSurface:Detailed,
    699230,                  !- Name
    Wall,                    !- Surface Type
    Exterior Wall North,     !- Construction Name
    APTO02_P2,               !- Zone Name
    Outdoors,                !- Outside Boundary Condition
    ,                        !- Outside Boundary Condition Object
    SunExposed,              !- Sun Exposure
    WindExposed,             !- Wind Exposure
    ,                        !- View Factor to Ground
    4,                       !- Number of Vertices
    5.800000000000,          !- Vertex 1 X-coordinate {m}
    6.750000000000,          !- Vertex 1 Y-coordinate {m}
    5.700000000000,          !- Vertex 1 Z-coordinate {m}
    5.800000000000,          !- Vertex 2 X-coordinate {m}
    6.750000000000,          !- Vertex 2 Y-coordinate {m}
    2.850000000000,          !- Vertex 2 Z-coordinate {m}
    0.000000000000,          !- Vertex 3 X-coordinate {m}
    6.750000000000,          !- Vertex 3 Y-coordinate {m}
    2.850000000000,          !- Vertex 3 Z-coordinate {m}
    0.000000000000,          !- Vertex 4 X-coordinate {m}
    6.750000000000,          !- Vertex 4 Y-coordinate {m}
    5.700000000000;          !- Vertex 4 Z-coordinate {m}

BuildingSurface:Detailed,
    20BFE6,                  !- Name
    Wall,                    !- Surface Type
    Interior Wall,           !- Construction Name
    APTO02_P2,               !- Zone Name
    Surface,                 !- Outside Boundary Condition
    7DEC70,                  !- Outside Boundary Condition Object
    NoSun,                   !- Sun Exposure
    NoWind,                  !- Wind Exposure
    ,                        !- View Factor to Ground
    4,                       !- Number of Vertices
    1.350000000000,          !- Vertex 1 X-coordinate {m}
    0.000000000000,          !- Vertex 1 Y-coordinate {m}
    5.700000000000,          !- Vertex 1 Z-coordinate {m}
    1.350000000000,          !- Vertex 2 X-coordinate {m}
    0.000000000000,          !- Vertex 2 Y-coordinate {m}
    2.850000000000,          !- Vertex 2 Z-coordinate {m}
    7.450000000000,          !- Vertex 3 X-coordinate {m}
    0.000000000000,          !- Vertex 3 Y-coordinate {m}
    2.850000000000,          !- Vertex 3 Z-coordinate {m}
    7.450000000000,          !- Vertex 4 X-coordinate {m}
    0.000000000000,          !- Vertex 4 Y-coordinate {m}
    5.700000000000;          !- Vertex 4 Z-coordinate {m}

BuildingSurface:Detailed,
    10207F,                  !- Name
    Ceiling,                 !- Surface Type
    Interior Ceiling,        !- Construction Name
    APTO02_P2,               !- Zone Name
    Surface,                 !- Outside Boundary Condition
    F5E8E4,                  !- Outside Boundary Condition Object
    NoSun,                   !- Sun Exposure
    NoWind,                  !- Wind Exposure
    ,                        !- View Factor to Ground
    8,                       !- Number of Vertices
    0.000000000000,          !- Vertex 1 X-coordinate {m}
    6.750000000000,          !- Vertex 1 Y-coordinate {m}
    5.700000000000,          !- Vertex 1 Z-coordinate {m}
    0.000000000000,          !- Vertex 2 X-coordinate {m}
    0.950000000000,          !- Vertex 2 Y-coordinate {m}
    5.700000000000,          !- Vertex 2 Z-coordinate {m}
    1.350000000000,          !- Vertex 3 X-coordinate {m}
    0.950000000000,          !- Vertex 3 Y-coordinate {m}
    5.700000000000,          !- Vertex 3 Z-coordinate {m}
    1.350000000000,          !- Vertex 4 X-coordinate {m}
    0.000000000000,          !- Vertex 4 Y-coordinate {m}
    5.700000000000,          !- Vertex 4 Z-coordinate {m}
    7.450000000000,          !- Vertex 5 X-coordinate {m}
    0.000000000000,          !- Vertex 5 Y-coordinate {m}
    5.700000000000,          !- Vertex 5 Z-coordinate {m}
    7.450000000000,          !- Vertex 6 X-coordinate {m}
    3.600000000000,          !- Vertex 6 Y-coordinate {m}
    5.700000000000,          !- Vertex 6 Z-coordinate {m}
    5.800000000000,          !- Vertex 7 X-coordinate {m}
    3.600000000000,          !- Vertex 7 Y-coordinate {m}
    5.700000000000,          !- Vertex 7 Z-coordinate {m}
    5.800000000000,          !- Vertex 8 X-coordinate {m}
    6.750000000000,          !- Vertex 8 Y-coordinate {m}
    5.700000000000;          !- Vertex 8 Z-coordinate {m}

BuildingSurface:Detailed,
    7DBA1F,                  !- Name
    Floor,                   !- Surface Type
    Interior Floor,          !- Construction Name
    APTO02_P2,               !- Zone Name
    Surface,                 !- Outside Boundary Condition
    A1838E,                  !- Outside Boundary Condition Object
    NoSun,                   !- Sun Exposure
    NoWind,                  !- Wind Exposure
    ,                        !- View Factor to Ground
    8,                       !- Number of Vertices
    5.800000000000,          !- Vertex 1 X-coordinate {m}
    6.750000000000,          !- Vertex 1 Y-coordinate {m}
    2.850000000000,          !- Vertex 1 Z-coordinate {m}
    5.800000000000,          !- Vertex 2 X-coordinate {m}
    3.600000000000,          !- Vertex 2 Y-coordinate {m}
    2.850000000000,          !- Vertex 2 Z-coordinate {m}
    7.450000000000,          !- Vertex 3 X-coordinate {m}
    3.600000000000,          !- Vertex 3 Y-coordinate {m}
    2.850000000000,          !- Vertex 3 Z-coordinate {m}
    7.450000000000,          !- Vertex 4 X-coordinate {m}
    0.000000000000,          !- Vertex 4 Y-coordinate {m}
    2.850000000000,          !- Vertex 4 Z-coordinate {m}
    1.350000000000,          !- Vertex 5 X-coordinate {m}
    0.000000000000,          !- Vertex 5 Y-coordinate {m}
    2.850000000000,          !- Vertex 5 Z-coordinate {m}
    1.350000000000,          !- Vertex 6 X-coordinate {m}
    0.950000000000,          !- Vertex 6 Y-coordinate {m}
    2.850000000000,          !- Vertex 6 Z-coordinate {m}
    0.000000000000,          !- Vertex 7 X-coordinate {m}
    0.950000000000,          !- Vertex 7 Y-coordinate {m}
    2.850000000000,          !- Vertex 7 Z-coordinate {m}
    0.000000000000,          !- Vertex 8 X-coordinate {m}
    6.750000000000,          !- Vertex 8 Y-coordinate {m}
    2.850000000000;          !- Vertex 8 Z-coordinate {m}

BuildingSurface:Detailed,
    74BC0E,                  !- Name
    Floor,                   !- Surface Type
    Interior Floor,          !- Construction Name
    APTO04_P3,               !- Zone Name
    Surface,                 !- Outside Boundary Condition
    1FF8F7,                  !- Outside Boundary Condition Object
    NoSun,                   !- Sun Exposure
    NoWind,                  !- Wind Exposure
    0.0,                     !- View Factor to Ground
    8,                       !- Number of Vertices
    15.800000000000,         !- Vertex 1 X-coordinate {m}
    0.000000000000,          !- Vertex 1 Y-coordinate {m}
    5.700000000000,          !- Vertex 1 Z-coordinate {m}
    15.800000000000,         !- Vertex 2 X-coordinate {m}
    -0.950000000000,         !- Vertex 2 Y-coordinate {m}
    5.700000000000,          !- Vertex 2 Z-coordinate {m}
    17.150000000000,         !- Vertex 3 X-coordinate {m}
    -0.950000000000,         !- Vertex 3 Y-coordinate {m}
    5.700000000000,          !- Vertex 3 Z-coordinate {m}
    17.150000000000,         !- Vertex 4 X-coordinate {m}
    -6.750000000000,         !- Vertex 4 Y-coordinate {m}
    5.700000000000,          !- Vertex 4 Z-coordinate {m}
    11.350000000000,         !- Vertex 5 X-coordinate {m}
    -6.750000000000,         !- Vertex 5 Y-coordinate {m}
    5.700000000000,          !- Vertex 5 Z-coordinate {m}
    11.350000000000,         !- Vertex 6 X-coordinate {m}
    -3.600000000000,         !- Vertex 6 Y-coordinate {m}
    5.700000000000,          !- Vertex 6 Z-coordinate {m}
    9.700000000000,          !- Vertex 7 X-coordinate {m}
    -3.600000000000,         !- Vertex 7 Y-coordinate {m}
    5.700000000000,          !- Vertex 7 Z-coordinate {m}
    9.700000000000,          !- Vertex 8 X-coordinate {m}
    0.000000000000,          !- Vertex 8 Y-coordinate {m}
    5.700000000000;          !- Vertex 8 Z-coordinate {m}

BuildingSurface:Detailed,
    C7D53D,                  !- Name
    Ceiling,                 !- Surface Type
    Interior Ceiling,        !- Construction Name
    APTO04_P3,               !- Zone Name
    Surface,                 !- Outside Boundary Condition
    1D7A6A,                  !- Outside Boundary Condition Object
    NoSun,                   !- Sun Exposure
    NoWind,                  !- Wind Exposure
    ,                        !- View Factor to Ground
    8,                       !- Number of Vertices
    9.700000000000,          !- Vertex 1 X-coordinate {m}
    0.000000000000,          !- Vertex 1 Y-coordinate {m}
    8.550000000000,          !- Vertex 1 Z-coordinate {m}
    9.700000000000,          !- Vertex 2 X-coordinate {m}
    -3.600000000000,         !- Vertex 2 Y-coordinate {m}
    8.550000000000,          !- Vertex 2 Z-coordinate {m}
    11.350000000000,         !- Vertex 3 X-coordinate {m}
    -3.600000000000,         !- Vertex 3 Y-coordinate {m}
    8.550000000000,          !- Vertex 3 Z-coordinate {m}
    11.350000000000,         !- Vertex 4 X-coordinate {m}
    -6.750000000000,         !- Vertex 4 Y-coordinate {m}
    8.550000000000,          !- Vertex 4 Z-coordinate {m}
    17.150000000000,         !- Vertex 5 X-coordinate {m}
    -6.750000000000,         !- Vertex 5 Y-coordinate {m}
    8.550000000000,          !- Vertex 5 Z-coordinate {m}
    17.150000000000,         !- Vertex 6 X-coordinate {m}
    -0.950000000000,         !- Vertex 6 Y-coordinate {m}
    8.550000000000,          !- Vertex 6 Z-coordinate {m}
    15.800000000000,         !- Vertex 7 X-coordinate {m}
    -0.950000000000,         !- Vertex 7 Y-coordinate {m}
    8.550000000000,          !- Vertex 7 Z-coordinate {m}
    15.800000000000,         !- Vertex 8 X-coordinate {m}
    0.000000000000,          !- Vertex 8 Y-coordinate {m}
    8.550000000000;          !- Vertex 8 Z-coordinate {m}

BuildingSurface:Detailed,
    995204,                  !- Name
    Wall,                    !- Surface Type
    Interior Wall,           !- Construction Name
    APTO04_P3,               !- Zone Name
    Surface,                 !- Outside Boundary Condition
    A47AD3,                  !- Outside Boundary Condition Object
    NoSun,                   !- Sun Exposure
    NoWind,                  !- Wind Exposure
    ,                        !- View Factor to Ground
    4,                       !- Number of Vertices
    15.800000000000,         !- Vertex 1 X-coordinate {m}
    0.000000000000,          !- Vertex 1 Y-coordinate {m}
    8.550000000000,          !- Vertex 1 Z-coordinate {m}
    15.800000000000,         !- Vertex 2 X-coordinate {m}
    0.000000000000,          !- Vertex 2 Y-coordinate {m}
    5.700000000000,          !- Vertex 2 Z-coordinate {m}
    9.700000000000,          !- Vertex 3 X-coordinate {m}
    0.000000000000,          !- Vertex 3 Y-coordinate {m}
    5.700000000000,          !- Vertex 3 Z-coordinate {m}
    9.700000000000,          !- Vertex 4 X-coordinate {m}
    0.000000000000,          !- Vertex 4 Y-coordinate {m}
    8.550000000000;          !- Vertex 4 Z-coordinate {m}

BuildingSurface:Detailed,
    98E968,                  !- Name
    Wall,                    !- Surface Type
    Exterior Wall East,      !- Construction Name
    APTO04_P3,               !- Zone Name
    Outdoors,                !- Outside Boundary Condition
    ,                        !- Outside Boundary Condition Object
    SunExposed,              !- Sun Exposure
    WindExposed,             !- Wind Exposure
    ,                        !- View Factor to Ground
    4,                       !- Number of Vertices
    15.800000000000,         !- Vertex 1 X-coordinate {m}
    -0.950000000000,         !- Vertex 1 Y-coordinate {m}
    8.550000000000,          !- Vertex 1 Z-coordinate {m}
    15.800000000000,         !- Vertex 2 X-coordinate {m}
    -0.950000000000,         !- Vertex 2 Y-coordinate {m}
    5.700000000000,          !- Vertex 2 Z-coordinate {m}
    15.800000000000,         !- Vertex 3 X-coordinate {m}
    0.000000000000,          !- Vertex 3 Y-coordinate {m}
    5.700000000000,          !- Vertex 3 Z-coordinate {m}
    15.800000000000,         !- Vertex 4 X-coordinate {m}
    0.000000000000,          !- Vertex 4 Y-coordinate {m}
    8.550000000000;          !- Vertex 4 Z-coordinate {m}

BuildingSurface:Detailed,
    1C1EDA,                  !- Name
    Wall,                    !- Surface Type
    Exterior Wall North,     !- Construction Name
    APTO04_P3,               !- Zone Name
    Outdoors,                !- Outside Boundary Condition
    ,                        !- Outside Boundary Condition Object
    SunExposed,              !- Sun Exposure
    WindExposed,             !- Wind Exposure
    ,                        !- View Factor to Ground
    4,                       !- Number of Vertices
    17.150000000000,         !- Vertex 1 X-coordinate {m}
    -0.950000000000,         !- Vertex 1 Y-coordinate {m}
    8.550000000000,          !- Vertex 1 Z-coordinate {m}
    17.150000000000,         !- Vertex 2 X-coordinate {m}
    -0.950000000000,         !- Vertex 2 Y-coordinate {m}
    5.700000000000,          !- Vertex 2 Z-coordinate {m}
    15.800000000000,         !- Vertex 3 X-coordinate {m}
    -0.950000000000,         !- Vertex 3 Y-coordinate {m}
    5.700000000000,          !- Vertex 3 Z-coordinate {m}
    15.800000000000,         !- Vertex 4 X-coordinate {m}
    -0.950000000000,         !- Vertex 4 Y-coordinate {m}
    8.550000000000;          !- Vertex 4 Z-coordinate {m}

BuildingSurface:Detailed,
    F68986,                  !- Name
    Wall,                    !- Surface Type
    Exterior Wall East,      !- Construction Name
    APTO04_P3,               !- Zone Name
    Outdoors,                !- Outside Boundary Condition
    ,                        !- Outside Boundary Condition Object
    SunExposed,              !- Sun Exposure
    WindExposed,             !- Wind Exposure
    ,                        !- View Factor to Ground
    4,                       !- Number of Vertices
    17.150000000000,         !- Vertex 1 X-coordinate {m}
    -6.750000000000,         !- Vertex 1 Y-coordinate {m}
    8.550000000000,          !- Vertex 1 Z-coordinate {m}
    17.150000000000,         !- Vertex 2 X-coordinate {m}
    -6.750000000000,         !- Vertex 2 Y-coordinate {m}
    5.700000000000,          !- Vertex 2 Z-coordinate {m}
    17.150000000000,         !- Vertex 3 X-coordinate {m}
    -0.950000000000,         !- Vertex 3 Y-coordinate {m}
    5.700000000000,          !- Vertex 3 Z-coordinate {m}
    17.150000000000,         !- Vertex 4 X-coordinate {m}
    -0.950000000000,         !- Vertex 4 Y-coordinate {m}
    8.550000000000;          !- Vertex 4 Z-coordinate {m}

BuildingSurface:Detailed,
    C92B9E,                  !- Name
    Wall,                    !- Surface Type
    Exterior Wall South,     !- Construction Name
    APTO04_P3,               !- Zone Name
    Outdoors,                !- Outside Boundary Condition
    ,                        !- Outside Boundary Condition Object
    SunExposed,              !- Sun Exposure
    WindExposed,             !- Wind Exposure
    ,                        !- View Factor to Ground
    4,                       !- Number of Vertices
    11.350000000000,         !- Vertex 1 X-coordinate {m}
    -6.750000000000,         !- Vertex 1 Y-coordinate {m}
    8.550000000000,          !- Vertex 1 Z-coordinate {m}
    11.350000000000,         !- Vertex 2 X-coordinate {m}
    -6.750000000000,         !- Vertex 2 Y-coordinate {m}
    5.700000000000,          !- Vertex 2 Z-coordinate {m}
    17.150000000000,         !- Vertex 3 X-coordinate {m}
    -6.750000000000,         !- Vertex 3 Y-coordinate {m}
    5.700000000000,          !- Vertex 3 Z-coordinate {m}
    17.150000000000,         !- Vertex 4 X-coordinate {m}
    -6.750000000000,         !- Vertex 4 Y-coordinate {m}
    8.550000000000;          !- Vertex 4 Z-coordinate {m}

BuildingSurface:Detailed,
    2E4FF0,                  !- Name
    Wall,                    !- Surface Type
    Exterior Wall West,      !- Construction Name
    APTO04_P3,               !- Zone Name
    Outdoors,                !- Outside Boundary Condition
    ,                        !- Outside Boundary Condition Object
    SunExposed,              !- Sun Exposure
    WindExposed,             !- Wind Exposure
    ,                        !- View Factor to Ground
    4,                       !- Number of Vertices
    11.350000000000,         !- Vertex 1 X-coordinate {m}
    -3.600000000000,         !- Vertex 1 Y-coordinate {m}
    8.550000000000,          !- Vertex 1 Z-coordinate {m}
    11.350000000000,         !- Vertex 2 X-coordinate {m}
    -3.600000000000,         !- Vertex 2 Y-coordinate {m}
    5.700000000000,          !- Vertex 2 Z-coordinate {m}
    11.350000000000,         !- Vertex 3 X-coordinate {m}
    -6.750000000000,         !- Vertex 3 Y-coordinate {m}
    5.700000000000,          !- Vertex 3 Z-coordinate {m}
    11.350000000000,         !- Vertex 4 X-coordinate {m}
    -6.750000000000,         !- Vertex 4 Y-coordinate {m}
    8.550000000000;          !- Vertex 4 Z-coordinate {m}

BuildingSurface:Detailed,
    DDE242,                  !- Name
    Wall,                    !- Surface Type
    Interior Wall,           !- Construction Name
    APTO04_P3,               !- Zone Name
    Surface,                 !- Outside Boundary Condition
    8F9255,                  !- Outside Boundary Condition Object
    NoSun,                   !- Sun Exposure
    NoWind,                  !- Wind Exposure
    ,                        !- View Factor to Ground
    4,                       !- Number of Vertices
    9.700000000000,          !- Vertex 1 X-coordinate {m}
    0.000000000000,          !- Vertex 1 Y-coordinate {m}
    8.550000000000,          !- Vertex 1 Z-coordinate {m}
    9.700000000000,          !- Vertex 2 X-coordinate {m}
    0.000000000000,          !- Vertex 2 Y-coordinate {m}
    5.700000000000,          !- Vertex 2 Z-coordinate {m}
    9.700000000000,          !- Vertex 3 X-coordinate {m}
    -3.600000000000,         !- Vertex 3 Y-coordinate {m}
    5.700000000000,          !- Vertex 3 Z-coordinate {m}
    9.700000000000,          !- Vertex 4 X-coordinate {m}
    -3.600000000000,         !- Vertex 4 Y-coordinate {m}
    8.550000000000;          !- Vertex 4 Z-coordinate {m}

BuildingSurface:Detailed,
    A48C06,                  !- Name
    Wall,                    !- Surface Type
    Exterior Wall South,     !- Construction Name
    APTO04_P3,               !- Zone Name
    Outdoors,                !- Outside Boundary Condition
    ,                        !- Outside Boundary Condition Object
    SunExposed,              !- Sun Exposure
    WindExposed,             !- Wind Exposure
    ,                        !- View Factor to Ground
    4,                       !- Number of Vertices
    9.700000000000,          !- Vertex 1 X-coordinate {m}
    -3.600000000000,         !- Vertex 1 Y-coordinate {m}
    8.550000000000,          !- Vertex 1 Z-coordinate {m}
    9.700000000000,          !- Vertex 2 X-coordinate {m}
    -3.600000000000,         !- Vertex 2 Y-coordinate {m}
    5.700000000000,          !- Vertex 2 Z-coordinate {m}
    11.350000000000,         !- Vertex 3 X-coordinate {m}
    -3.600000000000,         !- Vertex 3 Y-coordinate {m}
    5.700000000000,          !- Vertex 3 Z-coordinate {m}
    11.350000000000,         !- Vertex 4 X-coordinate {m}
    -3.600000000000,         !- Vertex 4 Y-coordinate {m}
    8.550000000000;          !- Vertex 4 Z-coordinate {m}

BuildingSurface:Detailed,
    221A29,                  !- Name
    Wall,                    !- Surface Type
    Exterior Wall West,      !- Construction Name
    APTO02_P3,               !- Zone Name
    Outdoors,                !- Outside Boundary Condition
    ,                        !- Outside Boundary Condition Object
    SunExposed,              !- Sun Exposure
    WindExposed,             !- Wind Exposure
    ,                        !- View Factor to Ground
    4,                       !- Number of Vertices
    0.000000000000,          !- Vertex 1 X-coordinate {m}
    6.750000000000,          !- Vertex 1 Y-coordinate {m}
    8.550000000000,          !- Vertex 1 Z-coordinate {m}
    0.000000000000,          !- Vertex 2 X-coordinate {m}
    6.750000000000,          !- Vertex 2 Y-coordinate {m}
    5.700000000000,          !- Vertex 2 Z-coordinate {m}
    0.000000000000,          !- Vertex 3 X-coordinate {m}
    0.950000000000,          !- Vertex 3 Y-coordinate {m}
    5.700000000000,          !- Vertex 3 Z-coordinate {m}
    0.000000000000,          !- Vertex 4 X-coordinate {m}
    0.950000000000,          !- Vertex 4 Y-coordinate {m}
    8.550000000000;          !- Vertex 4 Z-coordinate {m}

BuildingSurface:Detailed,
    EF3859,                  !- Name
    Wall,                    !- Surface Type
    Exterior Wall South,     !- Construction Name
    APTO02_P3,               !- Zone Name
    Outdoors,                !- Outside Boundary Condition
    ,                        !- Outside Boundary Condition Object
    SunExposed,              !- Sun Exposure
    WindExposed,             !- Wind Exposure
    ,                        !- View Factor to Ground
    4,                       !- Number of Vertices
    0.000000000000,          !- Vertex 1 X-coordinate {m}
    0.950000000000,          !- Vertex 1 Y-coordinate {m}
    8.550000000000,          !- Vertex 1 Z-coordinate {m}
    0.000000000000,          !- Vertex 2 X-coordinate {m}
    0.950000000000,          !- Vertex 2 Y-coordinate {m}
    5.700000000000,          !- Vertex 2 Z-coordinate {m}
    1.350000000000,          !- Vertex 3 X-coordinate {m}
    0.950000000000,          !- Vertex 3 Y-coordinate {m}
    5.700000000000,          !- Vertex 3 Z-coordinate {m}
    1.350000000000,          !- Vertex 4 X-coordinate {m}
    0.950000000000,          !- Vertex 4 Y-coordinate {m}
    8.550000000000;          !- Vertex 4 Z-coordinate {m}

BuildingSurface:Detailed,
    D0D17B,                  !- Name
    Wall,                    !- Surface Type
    Interior Wall,           !- Construction Name
    APTO02_P3,               !- Zone Name
    Surface,                 !- Outside Boundary Condition
    F5E602,                  !- Outside Boundary Condition Object
    NoSun,                   !- Sun Exposure
    NoWind,                  !- Wind Exposure
    ,                        !- View Factor to Ground
    4,                       !- Number of Vertices
    7.450000000000,          !- Vertex 1 X-coordinate {m}
    0.000000000000,          !- Vertex 1 Y-coordinate {m}
    8.550000000000,          !- Vertex 1 Z-coordinate {m}
    7.450000000000,          !- Vertex 2 X-coordinate {m}
    0.000000000000,          !- Vertex 2 Y-coordinate {m}
    5.700000000000,          !- Vertex 2 Z-coordinate {m}
    7.450000000000,          !- Vertex 3 X-coordinate {m}
    3.600000000000,          !- Vertex 3 Y-coordinate {m}
    5.700000000000,          !- Vertex 3 Z-coordinate {m}
    7.450000000000,          !- Vertex 4 X-coordinate {m}
    3.600000000000,          !- Vertex 4 Y-coordinate {m}
    8.550000000000;          !- Vertex 4 Z-coordinate {m}

BuildingSurface:Detailed,
    1FC909,                  !- Name
    Wall,                    !- Surface Type
    Exterior Wall East,      !- Construction Name
    APTO02_P3,               !- Zone Name
    Outdoors,                !- Outside Boundary Condition
    ,                        !- Outside Boundary Condition Object
    SunExposed,              !- Sun Exposure
    WindExposed,             !- Wind Exposure
    ,                        !- View Factor to Ground
    4,                       !- Number of Vertices
    5.800000000000,          !- Vertex 1 X-coordinate {m}
    3.600000000000,          !- Vertex 1 Y-coordinate {m}
    8.550000000000,          !- Vertex 1 Z-coordinate {m}
    5.800000000000,          !- Vertex 2 X-coordinate {m}
    3.600000000000,          !- Vertex 2 Y-coordinate {m}
    5.700000000000,          !- Vertex 2 Z-coordinate {m}
    5.800000000000,          !- Vertex 3 X-coordinate {m}
    6.750000000000,          !- Vertex 3 Y-coordinate {m}
    5.700000000000,          !- Vertex 3 Z-coordinate {m}
    5.800000000000,          !- Vertex 4 X-coordinate {m}
    6.750000000000,          !- Vertex 4 Y-coordinate {m}
    8.550000000000;          !- Vertex 4 Z-coordinate {m}

BuildingSurface:Detailed,
    68BCDE,                  !- Name
    Wall,                    !- Surface Type
    Exterior Wall North,     !- Construction Name
    APTO02_P3,               !- Zone Name
    Outdoors,                !- Outside Boundary Condition
    ,                        !- Outside Boundary Condition Object
    SunExposed,              !- Sun Exposure
    WindExposed,             !- Wind Exposure
    ,                        !- View Factor to Ground
    4,                       !- Number of Vertices
    7.450000000000,          !- Vertex 1 X-coordinate {m}
    3.600000000000,          !- Vertex 1 Y-coordinate {m}
    8.550000000000,          !- Vertex 1 Z-coordinate {m}
    7.450000000000,          !- Vertex 2 X-coordinate {m}
    3.600000000000,          !- Vertex 2 Y-coordinate {m}
    5.700000000000,          !- Vertex 2 Z-coordinate {m}
    5.800000000000,          !- Vertex 3 X-coordinate {m}
    3.600000000000,          !- Vertex 3 Y-coordinate {m}
    5.700000000000,          !- Vertex 3 Z-coordinate {m}
    5.800000000000,          !- Vertex 4 X-coordinate {m}
    3.600000000000,          !- Vertex 4 Y-coordinate {m}
    8.550000000000;          !- Vertex 4 Z-coordinate {m}

BuildingSurface:Detailed,
    A82370,                  !- Name
    Wall,                    !- Surface Type
    Exterior Wall West,      !- Construction Name
    APTO02_P3,               !- Zone Name
    Outdoors,                !- Outside Boundary Condition
    ,                        !- Outside Boundary Condition Object
    SunExposed,              !- Sun Exposure
    WindExposed,             !- Wind Exposure
    ,                        !- View Factor to Ground
    4,                       !- Number of Vertices
    1.350000000000,          !- Vertex 1 X-coordinate {m}
    0.950000000000,          !- Vertex 1 Y-coordinate {m}
    8.550000000000,          !- Vertex 1 Z-coordinate {m}
    1.350000000000,          !- Vertex 2 X-coordinate {m}
    0.950000000000,          !- Vertex 2 Y-coordinate {m}
    5.700000000000,          !- Vertex 2 Z-coordinate {m}
    1.350000000000,          !- Vertex 3 X-coordinate {m}
    0.000000000000,          !- Vertex 3 Y-coordinate {m}
    5.700000000000,          !- Vertex 3 Z-coordinate {m}
    1.350000000000,          !- Vertex 4 X-coordinate {m}
    0.000000000000,          !- Vertex 4 Y-coordinate {m}
    8.550000000000;          !- Vertex 4 Z-coordinate {m}

BuildingSurface:Detailed,
    AC638A,                  !- Name
    Wall,                    !- Surface Type
    Exterior Wall North,     !- Construction Name
    APTO02_P3,               !- Zone Name
    Outdoors,                !- Outside Boundary Condition
    ,                        !- Outside Boundary Condition Object
    SunExposed,              !- Sun Exposure
    WindExposed,             !- Wind Exposure
    ,                        !- View Factor to Ground
    4,                       !- Number of Vertices
    5.800000000000,          !- Vertex 1 X-coordinate {m}
    6.750000000000,          !- Vertex 1 Y-coordinate {m}
    8.550000000000,          !- Vertex 1 Z-coordinate {m}
    5.800000000000,          !- Vertex 2 X-coordinate {m}
    6.750000000000,          !- Vertex 2 Y-coordinate {m}
    5.700000000000,          !- Vertex 2 Z-coordinate {m}
    0.000000000000,          !- Vertex 3 X-coordinate {m}
    6.750000000000,          !- Vertex 3 Y-coordinate {m}
    5.700000000000,          !- Vertex 3 Z-coordinate {m}
    0.000000000000,          !- Vertex 4 X-coordinate {m}
    6.750000000000,          !- Vertex 4 Y-coordinate {m}
    8.550000000000;          !- Vertex 4 Z-coordinate {m}

BuildingSurface:Detailed,
    21EF02,                  !- Name
    Wall,                    !- Surface Type
    Interior Wall,           !- Construction Name
    APTO02_P3,               !- Zone Name
    Surface,                 !- Outside Boundary Condition
    2AFFB9,                  !- Outside Boundary Condition Object
    NoSun,                   !- Sun Exposure
    NoWind,                  !- Wind Exposure
    ,                        !- View Factor to Ground
    4,                       !- Number of Vertices
    1.350000000000,          !- Vertex 1 X-coordinate {m}
    0.000000000000,          !- Vertex 1 Y-coordinate {m}
    8.550000000000,          !- Vertex 1 Z-coordinate {m}
    1.350000000000,          !- Vertex 2 X-coordinate {m}
    0.000000000000,          !- Vertex 2 Y-coordinate {m}
    5.700000000000,          !- Vertex 2 Z-coordinate {m}
    7.450000000000,          !- Vertex 3 X-coordinate {m}
    0.000000000000,          !- Vertex 3 Y-coordinate {m}
    5.700000000000,          !- Vertex 3 Z-coordinate {m}
    7.450000000000,          !- Vertex 4 X-coordinate {m}
    0.000000000000,          !- Vertex 4 Y-coordinate {m}
    8.550000000000;          !- Vertex 4 Z-coordinate {m}

BuildingSurface:Detailed,
    B6D426,                  !- Name
    Ceiling,                 !- Surface Type
    Interior Ceiling,        !- Construction Name
    APTO02_P3,               !- Zone Name
    Surface,                 !- Outside Boundary Condition
    4D298F,                  !- Outside Boundary Condition Object
    NoSun,                   !- Sun Exposure
    NoWind,                  !- Wind Exposure
    ,                        !- View Factor to Ground
    8,                       !- Number of Vertices
    0.000000000000,          !- Vertex 1 X-coordinate {m}
    6.750000000000,          !- Vertex 1 Y-coordinate {m}
    8.550000000000,          !- Vertex 1 Z-coordinate {m}
    0.000000000000,          !- Vertex 2 X-coordinate {m}
    0.950000000000,          !- Vertex 2 Y-coordinate {m}
    8.550000000000,          !- Vertex 2 Z-coordinate {m}
    1.350000000000,          !- Vertex 3 X-coordinate {m}
    0.950000000000,          !- Vertex 3 Y-coordinate {m}
    8.550000000000,          !- Vertex 3 Z-coordinate {m}
    1.350000000000,          !- Vertex 4 X-coordinate {m}
    0.000000000000,          !- Vertex 4 Y-coordinate {m}
    8.550000000000,          !- Vertex 4 Z-coordinate {m}
    7.450000000000,          !- Vertex 5 X-coordinate {m}
    0.000000000000,          !- Vertex 5 Y-coordinate {m}
    8.550000000000,          !- Vertex 5 Z-coordinate {m}
    7.450000000000,          !- Vertex 6 X-coordinate {m}
    3.600000000000,          !- Vertex 6 Y-coordinate {m}
    8.550000000000,          !- Vertex 6 Z-coordinate {m}
    5.800000000000,          !- Vertex 7 X-coordinate {m}
    3.600000000000,          !- Vertex 7 Y-coordinate {m}
    8.550000000000,          !- Vertex 7 Z-coordinate {m}
    5.800000000000,          !- Vertex 8 X-coordinate {m}
    6.750000000000,          !- Vertex 8 Y-coordinate {m}
    8.550000000000;          !- Vertex 8 Z-coordinate {m}

BuildingSurface:Detailed,
    F5E8E4,                  !- Name
    Floor,                   !- Surface Type
    Interior Floor,          !- Construction Name
    APTO02_P3,               !- Zone Name
    Surface,                 !- Outside Boundary Condition
    10207F,                  !- Outside Boundary Condition Object
    NoSun,                   !- Sun Exposure
    NoWind,                  !- Wind Exposure
    ,                        !- View Factor to Ground
    8,                       !- Number of Vertices
    5.800000000000,          !- Vertex 1 X-coordinate {m}
    6.750000000000,          !- Vertex 1 Y-coordinate {m}
    5.700000000000,          !- Vertex 1 Z-coordinate {m}
    5.800000000000,          !- Vertex 2 X-coordinate {m}
    3.600000000000,          !- Vertex 2 Y-coordinate {m}
    5.700000000000,          !- Vertex 2 Z-coordinate {m}
    7.450000000000,          !- Vertex 3 X-coordinate {m}
    3.600000000000,          !- Vertex 3 Y-coordinate {m}
    5.700000000000,          !- Vertex 3 Z-coordinate {m}
    7.450000000000,          !- Vertex 4 X-coordinate {m}
    0.000000000000,          !- Vertex 4 Y-coordinate {m}
    5.700000000000,          !- Vertex 4 Z-coordinate {m}
    1.350000000000,          !- Vertex 5 X-coordinate {m}
    0.000000000000,          !- Vertex 5 Y-coordinate {m}
    5.700000000000,          !- Vertex 5 Z-coordinate {m}
    1.350000000000,          !- Vertex 6 X-coordinate {m}
    0.950000000000,          !- Vertex 6 Y-coordinate {m}
    5.700000000000,          !- Vertex 6 Z-coordinate {m}
    0.000000000000,          !- Vertex 7 X-coordinate {m}
    0.950000000000,          !- Vertex 7 Y-coordinate {m}
    5.700000000000,          !- Vertex 7 Z-coordinate {m}
    0.000000000000,          !- Vertex 8 X-coordinate {m}
    6.750000000000,          !- Vertex 8 Y-coordinate {m}
    5.700000000000;          !- Vertex 8 Z-coordinate {m}

BuildingSurface:Detailed,
    D61BDE,                  !- Name
    Floor,                   !- Surface Type
    Interior Floor,          !- Construction Name
    APTO03_P3,               !- Zone Name
    Surface,                 !- Outside Boundary Condition
    64489F,                  !- Outside Boundary Condition Object
    NoSun,                   !- Sun Exposure
    NoWind,                  !- Wind Exposure
    ,                        !- View Factor to Ground
    8,                       !- Number of Vertices
    17.150000000000,         !- Vertex 1 X-coordinate {m}
    6.750000000000,          !- Vertex 1 Y-coordinate {m}
    5.700000000000,          !- Vertex 1 Z-coordinate {m}
    17.150000000000,         !- Vertex 2 X-coordinate {m}
    0.950000000000,          !- Vertex 2 Y-coordinate {m}
    5.700000000000,          !- Vertex 2 Z-coordinate {m}
    15.800000000000,         !- Vertex 3 X-coordinate {m}
    0.950000000000,          !- Vertex 3 Y-coordinate {m}
    5.700000000000,          !- Vertex 3 Z-coordinate {m}
    15.800000000000,         !- Vertex 4 X-coordinate {m}
    0.000000000000,          !- Vertex 4 Y-coordinate {m}
    5.700000000000,          !- Vertex 4 Z-coordinate {m}
    9.700000000000,          !- Vertex 5 X-coordinate {m}
    0.000000000000,          !- Vertex 5 Y-coordinate {m}
    5.700000000000,          !- Vertex 5 Z-coordinate {m}
    9.700000000000,          !- Vertex 6 X-coordinate {m}
    3.600000000000,          !- Vertex 6 Y-coordinate {m}
    5.700000000000,          !- Vertex 6 Z-coordinate {m}
    11.350000000000,         !- Vertex 7 X-coordinate {m}
    3.600000000000,          !- Vertex 7 Y-coordinate {m}
    5.700000000000,          !- Vertex 7 Z-coordinate {m}
    11.350000000000,         !- Vertex 8 X-coordinate {m}
    6.750000000000,          !- Vertex 8 Y-coordinate {m}
    5.700000000000;          !- Vertex 8 Z-coordinate {m}

BuildingSurface:Detailed,
    1BD12E,                  !- Name
    Ceiling,                 !- Surface Type
    Interior Ceiling,        !- Construction Name
    APTO03_P3,               !- Zone Name
    Surface,                 !- Outside Boundary Condition
    12FEA3,                  !- Outside Boundary Condition Object
    NoSun,                   !- Sun Exposure
    NoWind,                  !- Wind Exposure
    ,                        !- View Factor to Ground
    8,                       !- Number of Vertices
    11.350000000000,         !- Vertex 1 X-coordinate {m}
    6.750000000000,          !- Vertex 1 Y-coordinate {m}
    8.550000000000,          !- Vertex 1 Z-coordinate {m}
    11.350000000000,         !- Vertex 2 X-coordinate {m}
    3.600000000000,          !- Vertex 2 Y-coordinate {m}
    8.550000000000,          !- Vertex 2 Z-coordinate {m}
    9.700000000000,          !- Vertex 3 X-coordinate {m}
    3.600000000000,          !- Vertex 3 Y-coordinate {m}
    8.550000000000,          !- Vertex 3 Z-coordinate {m}
    9.700000000000,          !- Vertex 4 X-coordinate {m}
    0.000000000000,          !- Vertex 4 Y-coordinate {m}
    8.550000000000,          !- Vertex 4 Z-coordinate {m}
    15.800000000000,         !- Vertex 5 X-coordinate {m}
    0.000000000000,          !- Vertex 5 Y-coordinate {m}
    8.550000000000,          !- Vertex 5 Z-coordinate {m}
    15.800000000000,         !- Vertex 6 X-coordinate {m}
    0.950000000000,          !- Vertex 6 Y-coordinate {m}
    8.550000000000,          !- Vertex 6 Z-coordinate {m}
    17.150000000000,         !- Vertex 7 X-coordinate {m}
    0.950000000000,          !- Vertex 7 Y-coordinate {m}
    8.550000000000,          !- Vertex 7 Z-coordinate {m}
    17.150000000000,         !- Vertex 8 X-coordinate {m}
    6.750000000000,          !- Vertex 8 Y-coordinate {m}
    8.550000000000;          !- Vertex 8 Z-coordinate {m}

BuildingSurface:Detailed,
    9A48D0,                  !- Name
    Wall,                    !- Surface Type
    Interior Wall,           !- Construction Name
    APTO03_P3,               !- Zone Name
    Surface,                 !- Outside Boundary Condition
    70EA51,                  !- Outside Boundary Condition Object
    NoSun,                   !- Sun Exposure
    NoWind,                  !- Wind Exposure
    ,                        !- View Factor to Ground
    4,                       !- Number of Vertices
    9.700000000000,          !- Vertex 1 X-coordinate {m}
    3.600000000000,          !- Vertex 1 Y-coordinate {m}
    8.550000000000,          !- Vertex 1 Z-coordinate {m}
    9.700000000000,          !- Vertex 2 X-coordinate {m}
    3.600000000000,          !- Vertex 2 Y-coordinate {m}
    5.700000000000,          !- Vertex 2 Z-coordinate {m}
    9.700000000000,          !- Vertex 3 X-coordinate {m}
    0.000000000000,          !- Vertex 3 Y-coordinate {m}
    5.700000000000,          !- Vertex 3 Z-coordinate {m}
    9.700000000000,          !- Vertex 4 X-coordinate {m}
    0.000000000000,          !- Vertex 4 Y-coordinate {m}
    8.550000000000;          !- Vertex 4 Z-coordinate {m}

BuildingSurface:Detailed,
    45EBDE,                  !- Name
    Wall,                    !- Surface Type
    Exterior Wall North,     !- Construction Name
    APTO03_P3,               !- Zone Name
    Outdoors,                !- Outside Boundary Condition
    ,                        !- Outside Boundary Condition Object
    SunExposed,              !- Sun Exposure
    WindExposed,             !- Wind Exposure
    ,                        !- View Factor to Ground
    4,                       !- Number of Vertices
    11.350000000000,         !- Vertex 1 X-coordinate {m}
    3.600000000000,          !- Vertex 1 Y-coordinate {m}
    8.550000000000,          !- Vertex 1 Z-coordinate {m}
    11.350000000000,         !- Vertex 2 X-coordinate {m}
    3.600000000000,          !- Vertex 2 Y-coordinate {m}
    5.700000000000,          !- Vertex 2 Z-coordinate {m}
    9.700000000000,          !- Vertex 3 X-coordinate {m}
    3.600000000000,          !- Vertex 3 Y-coordinate {m}
    5.700000000000,          !- Vertex 3 Z-coordinate {m}
    9.700000000000,          !- Vertex 4 X-coordinate {m}
    3.600000000000,          !- Vertex 4 Y-coordinate {m}
    8.550000000000;          !- Vertex 4 Z-coordinate {m}

BuildingSurface:Detailed,
    4C35A5,                  !- Name
    Wall,                    !- Surface Type
    Exterior Wall West,      !- Construction Name
    APTO03_P3,               !- Zone Name
    Outdoors,                !- Outside Boundary Condition
    ,                        !- Outside Boundary Condition Object
    SunExposed,              !- Sun Exposure
    WindExposed,             !- Wind Exposure
    ,                        !- View Factor to Ground
    4,                       !- Number of Vertices
    11.350000000000,         !- Vertex 1 X-coordinate {m}
    6.750000000000,          !- Vertex 1 Y-coordinate {m}
    8.550000000000,          !- Vertex 1 Z-coordinate {m}
    11.350000000000,         !- Vertex 2 X-coordinate {m}
    6.750000000000,          !- Vertex 2 Y-coordinate {m}
    5.700000000000,          !- Vertex 2 Z-coordinate {m}
    11.350000000000,         !- Vertex 3 X-coordinate {m}
    3.600000000000,          !- Vertex 3 Y-coordinate {m}
    5.700000000000,          !- Vertex 3 Z-coordinate {m}
    11.350000000000,         !- Vertex 4 X-coordinate {m}
    3.600000000000,          !- Vertex 4 Y-coordinate {m}
    8.550000000000;          !- Vertex 4 Z-coordinate {m}

BuildingSurface:Detailed,
    7B53F9,                  !- Name
    Wall,                    !- Surface Type
    Exterior Wall North,     !- Construction Name
    APTO03_P3,               !- Zone Name
    Outdoors,                !- Outside Boundary Condition
    ,                        !- Outside Boundary Condition Object
    SunExposed,              !- Sun Exposure
    WindExposed,             !- Wind Exposure
    ,                        !- View Factor to Ground
    4,                       !- Number of Vertices
    17.150000000000,         !- Vertex 1 X-coordinate {m}
    6.750000000000,          !- Vertex 1 Y-coordinate {m}
    8.550000000000,          !- Vertex 1 Z-coordinate {m}
    17.150000000000,         !- Vertex 2 X-coordinate {m}
    6.750000000000,          !- Vertex 2 Y-coordinate {m}
    5.700000000000,          !- Vertex 2 Z-coordinate {m}
    11.350000000000,         !- Vertex 3 X-coordinate {m}
    6.750000000000,          !- Vertex 3 Y-coordinate {m}
    5.700000000000,          !- Vertex 3 Z-coordinate {m}
    11.350000000000,         !- Vertex 4 X-coordinate {m}
    6.750000000000,          !- Vertex 4 Y-coordinate {m}
    8.550000000000;          !- Vertex 4 Z-coordinate {m}

BuildingSurface:Detailed,
    B3F81B,                  !- Name
    Wall,                    !- Surface Type
    Exterior Wall East,      !- Construction Name
    APTO03_P3,               !- Zone Name
    Outdoors,                !- Outside Boundary Condition
    ,                        !- Outside Boundary Condition Object
    SunExposed,              !- Sun Exposure
    WindExposed,             !- Wind Exposure
    ,                        !- View Factor to Ground
    4,                       !- Number of Vertices
    17.150000000000,         !- Vertex 1 X-coordinate {m}
    0.950000000000,          !- Vertex 1 Y-coordinate {m}
    8.550000000000,          !- Vertex 1 Z-coordinate {m}
    17.150000000000,         !- Vertex 2 X-coordinate {m}
    0.950000000000,          !- Vertex 2 Y-coordinate {m}
    5.700000000000,          !- Vertex 2 Z-coordinate {m}
    17.150000000000,         !- Vertex 3 X-coordinate {m}
    6.750000000000,          !- Vertex 3 Y-coordinate {m}
    5.700000000000,          !- Vertex 3 Z-coordinate {m}
    17.150000000000,         !- Vertex 4 X-coordinate {m}
    6.750000000000,          !- Vertex 4 Y-coordinate {m}
    8.550000000000;          !- Vertex 4 Z-coordinate {m}

BuildingSurface:Detailed,
    79C615,                  !- Name
    Wall,                    !- Surface Type
    Exterior Wall South,     !- Construction Name
    APTO03_P3,               !- Zone Name
    Outdoors,                !- Outside Boundary Condition
    ,                        !- Outside Boundary Condition Object
    SunExposed,              !- Sun Exposure
    WindExposed,             !- Wind Exposure
    ,                        !- View Factor to Ground
    4,                       !- Number of Vertices
    15.800000000000,         !- Vertex 1 X-coordinate {m}
    0.950000000000,          !- Vertex 1 Y-coordinate {m}
    8.550000000000,          !- Vertex 1 Z-coordinate {m}
    15.800000000000,         !- Vertex 2 X-coordinate {m}
    0.950000000000,          !- Vertex 2 Y-coordinate {m}
    5.700000000000,          !- Vertex 2 Z-coordinate {m}
    17.150000000000,         !- Vertex 3 X-coordinate {m}
    0.950000000000,          !- Vertex 3 Y-coordinate {m}
    5.700000000000,          !- Vertex 3 Z-coordinate {m}
    17.150000000000,         !- Vertex 4 X-coordinate {m}
    0.950000000000,          !- Vertex 4 Y-coordinate {m}
    8.550000000000;          !- Vertex 4 Z-coordinate {m}

BuildingSurface:Detailed,
    D82DC0,                  !- Name
    Wall,                    !- Surface Type
    Exterior Wall East,      !- Construction Name
    APTO03_P3,               !- Zone Name
    Outdoors,                !- Outside Boundary Condition
    ,                        !- Outside Boundary Condition Object
    SunExposed,              !- Sun Exposure
    WindExposed,             !- Wind Exposure
    ,                        !- View Factor to Ground
    4,                       !- Number of Vertices
    15.800000000000,         !- Vertex 1 X-coordinate {m}
    0.000000000000,          !- Vertex 1 Y-coordinate {m}
    8.550000000000,          !- Vertex 1 Z-coordinate {m}
    15.800000000000,         !- Vertex 2 X-coordinate {m}
    0.000000000000,          !- Vertex 2 Y-coordinate {m}
    5.700000000000,          !- Vertex 2 Z-coordinate {m}
    15.800000000000,         !- Vertex 3 X-coordinate {m}
    0.950000000000,          !- Vertex 3 Y-coordinate {m}
    5.700000000000,          !- Vertex 3 Z-coordinate {m}
    15.800000000000,         !- Vertex 4 X-coordinate {m}
    0.950000000000,          !- Vertex 4 Y-coordinate {m}
    8.550000000000;          !- Vertex 4 Z-coordinate {m}

BuildingSurface:Detailed,
    A47AD3,                  !- Name
    Wall,                    !- Surface Type
    Interior Wall,           !- Construction Name
    APTO03_P3,               !- Zone Name
    Surface,                 !- Outside Boundary Condition
    995204,                  !- Outside Boundary Condition Object
    NoSun,                   !- Sun Exposure
    NoWind,                  !- Wind Exposure
    ,                        !- View Factor to Ground
    4,                       !- Number of Vertices
    9.700000000000,          !- Vertex 1 X-coordinate {m}
    0.000000000000,          !- Vertex 1 Y-coordinate {m}
    8.550000000000,          !- Vertex 1 Z-coordinate {m}
    9.700000000000,          !- Vertex 2 X-coordinate {m}
    0.000000000000,          !- Vertex 2 Y-coordinate {m}
    5.700000000000,          !- Vertex 2 Z-coordinate {m}
    15.800000000000,         !- Vertex 3 X-coordinate {m}
    0.000000000000,          !- Vertex 3 Y-coordinate {m}
    5.700000000000,          !- Vertex 3 Z-coordinate {m}
    15.800000000000,         !- Vertex 4 X-coordinate {m}
    0.000000000000,          !- Vertex 4 Y-coordinate {m}
    8.550000000000;          !- Vertex 4 Z-coordinate {m}

BuildingSurface:Detailed,
    66D5AA,                  !- Name
    Floor,                   !- Surface Type
    Interior Floor,          !- Construction Name
    APTO01_P3,               !- Zone Name
    Surface,                 !- Outside Boundary Condition
    4529F4,                  !- Outside Boundary Condition Object
    NoSun,                   !- Sun Exposure
    NoWind,                  !- Wind Exposure
    ,                        !- View Factor to Ground
    8,                       !- Number of Vertices
    7.450000000000,          !- Vertex 1 X-coordinate {m}
    0.000000000000,          !- Vertex 1 Y-coordinate {m}
    5.700000000000,          !- Vertex 1 Z-coordinate {m}
    7.450000000000,          !- Vertex 2 X-coordinate {m}
    -3.600000000000,         !- Vertex 2 Y-coordinate {m}
    5.700000000000,          !- Vertex 2 Z-coordinate {m}
    5.800000000000,          !- Vertex 3 X-coordinate {m}
    -3.600000000000,         !- Vertex 3 Y-coordinate {m}
    5.700000000000,          !- Vertex 3 Z-coordinate {m}
    5.800000000000,          !- Vertex 4 X-coordinate {m}
    -6.750000000000,         !- Vertex 4 Y-coordinate {m}
    5.700000000000,          !- Vertex 4 Z-coordinate {m}
    0.000000000000,          !- Vertex 5 X-coordinate {m}
    -6.750000000000,         !- Vertex 5 Y-coordinate {m}
    5.700000000000,          !- Vertex 5 Z-coordinate {m}
    0.000000000000,          !- Vertex 6 X-coordinate {m}
    -0.950000000000,         !- Vertex 6 Y-coordinate {m}
    5.700000000000,          !- Vertex 6 Z-coordinate {m}
    1.350000000000,          !- Vertex 7 X-coordinate {m}
    -0.950000000000,         !- Vertex 7 Y-coordinate {m}
    5.700000000000,          !- Vertex 7 Z-coordinate {m}
    1.350000000000,          !- Vertex 8 X-coordinate {m}
    0.000000000000,          !- Vertex 8 Y-coordinate {m}
    5.700000000000;          !- Vertex 8 Z-coordinate {m}

BuildingSurface:Detailed,
    2AFFB9,                  !- Name
    Wall,                    !- Surface Type
    Interior Wall,           !- Construction Name
    APTO01_P3,               !- Zone Name
    Surface,                 !- Outside Boundary Condition
    21EF02,                  !- Outside Boundary Condition Object
    NoSun,                   !- Sun Exposure
    NoWind,                  !- Wind Exposure
    ,                        !- View Factor to Ground
    4,                       !- Number of Vertices
    7.450000000000,          !- Vertex 1 X-coordinate {m}
    0.000000000000,          !- Vertex 1 Y-coordinate {m}
    8.550000000000,          !- Vertex 1 Z-coordinate {m}
    7.450000000000,          !- Vertex 2 X-coordinate {m}
    0.000000000000,          !- Vertex 2 Y-coordinate {m}
    5.700000000000,          !- Vertex 2 Z-coordinate {m}
    1.350000000000,          !- Vertex 3 X-coordinate {m}
    0.000000000000,          !- Vertex 3 Y-coordinate {m}
    5.700000000000,          !- Vertex 3 Z-coordinate {m}
    1.350000000000,          !- Vertex 4 X-coordinate {m}
    0.000000000000,          !- Vertex 4 Y-coordinate {m}
    8.550000000000;          !- Vertex 4 Z-coordinate {m}

BuildingSurface:Detailed,
    38E156,                  !- Name
    Wall,                    !- Surface Type
    Exterior Wall West,      !- Construction Name
    APTO01_P3,               !- Zone Name
    Outdoors,                !- Outside Boundary Condition
    ,                        !- Outside Boundary Condition Object
    SunExposed,              !- Sun Exposure
    WindExposed,             !- Wind Exposure
    ,                        !- View Factor to Ground
    4,                       !- Number of Vertices
    1.350000000000,          !- Vertex 1 X-coordinate {m}
    0.000000000000,          !- Vertex 1 Y-coordinate {m}
    8.550000000000,          !- Vertex 1 Z-coordinate {m}
    1.350000000000,          !- Vertex 2 X-coordinate {m}
    0.000000000000,          !- Vertex 2 Y-coordinate {m}
    5.700000000000,          !- Vertex 2 Z-coordinate {m}
    1.350000000000,          !- Vertex 3 X-coordinate {m}
    -0.950000000000,         !- Vertex 3 Y-coordinate {m}
    5.700000000000,          !- Vertex 3 Z-coordinate {m}
    1.350000000000,          !- Vertex 4 X-coordinate {m}
    -0.950000000000,         !- Vertex 4 Y-coordinate {m}
    8.550000000000;          !- Vertex 4 Z-coordinate {m}

BuildingSurface:Detailed,
    8B2339,                  !- Name
    Wall,                    !- Surface Type
    Exterior Wall West,      !- Construction Name
    APTO01_P3,               !- Zone Name
    Outdoors,                !- Outside Boundary Condition
    ,                        !- Outside Boundary Condition Object
    SunExposed,              !- Sun Exposure
    WindExposed,             !- Wind Exposure
    ,                        !- View Factor to Ground
    4,                       !- Number of Vertices
    0.000000000000,          !- Vertex 1 X-coordinate {m}
    -0.950000000000,         !- Vertex 1 Y-coordinate {m}
    8.550000000000,          !- Vertex 1 Z-coordinate {m}
    0.000000000000,          !- Vertex 2 X-coordinate {m}
    -0.950000000000,         !- Vertex 2 Y-coordinate {m}
    5.700000000000,          !- Vertex 2 Z-coordinate {m}
    0.000000000000,          !- Vertex 3 X-coordinate {m}
    -6.750000000000,         !- Vertex 3 Y-coordinate {m}
    5.700000000000,          !- Vertex 3 Z-coordinate {m}
    0.000000000000,          !- Vertex 4 X-coordinate {m}
    -6.750000000000,         !- Vertex 4 Y-coordinate {m}
    8.550000000000;          !- Vertex 4 Z-coordinate {m}

BuildingSurface:Detailed,
    E6B370,                  !- Name
    Ceiling,                 !- Surface Type
    Interior Ceiling,        !- Construction Name
    APTO01_P3,               !- Zone Name
    Surface,                 !- Outside Boundary Condition
    19909B,                  !- Outside Boundary Condition Object
    NoSun,                   !- Sun Exposure
    NoWind,                  !- Wind Exposure
    ,                        !- View Factor to Ground
    8,                       !- Number of Vertices
    0.000000000000,          !- Vertex 1 X-coordinate {m}
    -0.950000000000,         !- Vertex 1 Y-coordinate {m}
    8.550000000000,          !- Vertex 1 Z-coordinate {m}
    0.000000000000,          !- Vertex 2 X-coordinate {m}
    -6.750000000000,         !- Vertex 2 Y-coordinate {m}
    8.550000000000,          !- Vertex 2 Z-coordinate {m}
    5.800000000000,          !- Vertex 3 X-coordinate {m}
    -6.750000000000,         !- Vertex 3 Y-coordinate {m}
    8.550000000000,          !- Vertex 3 Z-coordinate {m}
    5.800000000000,          !- Vertex 4 X-coordinate {m}
    -3.600000000000,         !- Vertex 4 Y-coordinate {m}
    8.550000000000,          !- Vertex 4 Z-coordinate {m}
    7.450000000000,          !- Vertex 5 X-coordinate {m}
    -3.600000000000,         !- Vertex 5 Y-coordinate {m}
    8.550000000000,          !- Vertex 5 Z-coordinate {m}
    7.450000000000,          !- Vertex 6 X-coordinate {m}
    0.000000000000,          !- Vertex 6 Y-coordinate {m}
    8.550000000000,          !- Vertex 6 Z-coordinate {m}
    1.350000000000,          !- Vertex 7 X-coordinate {m}
    0.000000000000,          !- Vertex 7 Y-coordinate {m}
    8.550000000000,          !- Vertex 7 Z-coordinate {m}
    1.350000000000,          !- Vertex 8 X-coordinate {m}
    -0.950000000000,         !- Vertex 8 Y-coordinate {m}
    8.550000000000;          !- Vertex 8 Z-coordinate {m}

BuildingSurface:Detailed,
    B27677,                  !- Name
    Wall,                    !- Surface Type
    Exterior Wall North,     !- Construction Name
    APTO01_P3,               !- Zone Name
    Outdoors,                !- Outside Boundary Condition
    ,                        !- Outside Boundary Condition Object
    SunExposed,              !- Sun Exposure
    WindExposed,             !- Wind Exposure
    ,                        !- View Factor to Ground
    4,                       !- Number of Vertices
    1.350000000000,          !- Vertex 1 X-coordinate {m}
    -0.950000000000,         !- Vertex 1 Y-coordinate {m}
    8.550000000000,          !- Vertex 1 Z-coordinate {m}
    1.350000000000,          !- Vertex 2 X-coordinate {m}
    -0.950000000000,         !- Vertex 2 Y-coordinate {m}
    5.700000000000,          !- Vertex 2 Z-coordinate {m}
    0.000000000000,          !- Vertex 3 X-coordinate {m}
    -0.950000000000,         !- Vertex 3 Y-coordinate {m}
    5.700000000000,          !- Vertex 3 Z-coordinate {m}
    0.000000000000,          !- Vertex 4 X-coordinate {m}
    -0.950000000000,         !- Vertex 4 Y-coordinate {m}
    8.550000000000;          !- Vertex 4 Z-coordinate {m}

BuildingSurface:Detailed,
    70A587,                  !- Name
    Wall,                    !- Surface Type
    Interior Wall,           !- Construction Name
    APTO01_P3,               !- Zone Name
    Surface,                 !- Outside Boundary Condition
    122703,                  !- Outside Boundary Condition Object
    NoSun,                   !- Sun Exposure
    NoWind,                  !- Wind Exposure
    ,                        !- View Factor to Ground
    4,                       !- Number of Vertices
    7.450000000000,          !- Vertex 1 X-coordinate {m}
    -3.600000000000,         !- Vertex 1 Y-coordinate {m}
    8.550000000000,          !- Vertex 1 Z-coordinate {m}
    7.450000000000,          !- Vertex 2 X-coordinate {m}
    -3.600000000000,         !- Vertex 2 Y-coordinate {m}
    5.700000000000,          !- Vertex 2 Z-coordinate {m}
    7.450000000000,          !- Vertex 3 X-coordinate {m}
    0.000000000000,          !- Vertex 3 Y-coordinate {m}
    5.700000000000,          !- Vertex 3 Z-coordinate {m}
    7.450000000000,          !- Vertex 4 X-coordinate {m}
    0.000000000000,          !- Vertex 4 Y-coordinate {m}
    8.550000000000;          !- Vertex 4 Z-coordinate {m}

BuildingSurface:Detailed,
    7ECB6A,                  !- Name
    Wall,                    !- Surface Type
    Exterior Wall East,      !- Construction Name
    APTO01_P3,               !- Zone Name
    Outdoors,                !- Outside Boundary Condition
    ,                        !- Outside Boundary Condition Object
    SunExposed,              !- Sun Exposure
    WindExposed,             !- Wind Exposure
    ,                        !- View Factor to Ground
    4,                       !- Number of Vertices
    5.800000000000,          !- Vertex 1 X-coordinate {m}
    -6.750000000000,         !- Vertex 1 Y-coordinate {m}
    8.550000000000,          !- Vertex 1 Z-coordinate {m}
    5.800000000000,          !- Vertex 2 X-coordinate {m}
    -6.750000000000,         !- Vertex 2 Y-coordinate {m}
    5.700000000000,          !- Vertex 2 Z-coordinate {m}
    5.800000000000,          !- Vertex 3 X-coordinate {m}
    -3.600000000000,         !- Vertex 3 Y-coordinate {m}
    5.700000000000,          !- Vertex 3 Z-coordinate {m}
    5.800000000000,          !- Vertex 4 X-coordinate {m}
    -3.600000000000,         !- Vertex 4 Y-coordinate {m}
    8.550000000000;          !- Vertex 4 Z-coordinate {m}

BuildingSurface:Detailed,
    FC5CC3,                  !- Name
    Wall,                    !- Surface Type
    Exterior Wall North,     !- Construction Name
    APTO01_P3,               !- Zone Name
    Outdoors,                !- Outside Boundary Condition
    ,                        !- Outside Boundary Condition Object
    SunExposed,              !- Sun Exposure
    WindExposed,             !- Wind Exposure
    ,                        !- View Factor to Ground
    4,                       !- Number of Vertices
    5.800000000000,          !- Vertex 1 X-coordinate {m}
    -3.600000000000,         !- Vertex 1 Y-coordinate {m}
    8.550000000000,          !- Vertex 1 Z-coordinate {m}
    5.800000000000,          !- Vertex 2 X-coordinate {m}
    -3.600000000000,         !- Vertex 2 Y-coordinate {m}
    5.700000000000,          !- Vertex 2 Z-coordinate {m}
    7.450000000000,          !- Vertex 3 X-coordinate {m}
    -3.600000000000,         !- Vertex 3 Y-coordinate {m}
    5.700000000000,          !- Vertex 3 Z-coordinate {m}
    7.450000000000,          !- Vertex 4 X-coordinate {m}
    -3.600000000000,         !- Vertex 4 Y-coordinate {m}
    8.550000000000;          !- Vertex 4 Z-coordinate {m}

BuildingSurface:Detailed,
    E96152,                  !- Name
    Wall,                    !- Surface Type
    Exterior Wall South,     !- Construction Name
    APTO01_P3,               !- Zone Name
    Outdoors,                !- Outside Boundary Condition
    ,                        !- Outside Boundary Condition Object
    SunExposed,              !- Sun Exposure
    WindExposed,             !- Wind Exposure
    ,                        !- View Factor to Ground
    4,                       !- Number of Vertices
    0.000000000000,          !- Vertex 1 X-coordinate {m}
    -6.750000000000,         !- Vertex 1 Y-coordinate {m}
    8.550000000000,          !- Vertex 1 Z-coordinate {m}
    0.000000000000,          !- Vertex 2 X-coordinate {m}
    -6.750000000000,         !- Vertex 2 Y-coordinate {m}
    5.700000000000,          !- Vertex 2 Z-coordinate {m}
    5.800000000000,          !- Vertex 3 X-coordinate {m}
    -6.750000000000,         !- Vertex 3 Y-coordinate {m}
    5.700000000000,          !- Vertex 3 Z-coordinate {m}
    5.800000000000,          !- Vertex 4 X-coordinate {m}
    -6.750000000000,         !- Vertex 4 Y-coordinate {m}
    8.550000000000;          !- Vertex 4 Z-coordinate {m}

BuildingSurface:Detailed,
    12FEA3,                  !- Name
    Floor,                   !- Surface Type
    Interior Floor,          !- Construction Name
    APTO03_P4,               !- Zone Name
    Surface,                 !- Outside Boundary Condition
    1BD12E,                  !- Outside Boundary Condition Object
    NoSun,                   !- Sun Exposure
    NoWind,                  !- Wind Exposure
    ,                        !- View Factor to Ground
    8,                       !- Number of Vertices
    17.150000000000,         !- Vertex 1 X-coordinate {m}
    6.750000000000,          !- Vertex 1 Y-coordinate {m}
    8.550000000000,          !- Vertex 1 Z-coordinate {m}
    17.150000000000,         !- Vertex 2 X-coordinate {m}
    0.950000000000,          !- Vertex 2 Y-coordinate {m}
    8.550000000000,          !- Vertex 2 Z-coordinate {m}
    15.800000000000,         !- Vertex 3 X-coordinate {m}
    0.950000000000,          !- Vertex 3 Y-coordinate {m}
    8.550000000000,          !- Vertex 3 Z-coordinate {m}
    15.800000000000,         !- Vertex 4 X-coordinate {m}
    0.000000000000,          !- Vertex 4 Y-coordinate {m}
    8.550000000000,          !- Vertex 4 Z-coordinate {m}
    9.700000000000,          !- Vertex 5 X-coordinate {m}
    0.000000000000,          !- Vertex 5 Y-coordinate {m}
    8.550000000000,          !- Vertex 5 Z-coordinate {m}
    9.700000000000,          !- Vertex 6 X-coordinate {m}
    3.600000000000,          !- Vertex 6 Y-coordinate {m}
    8.550000000000,          !- Vertex 6 Z-coordinate {m}
    11.350000000000,         !- Vertex 7 X-coordinate {m}
    3.600000000000,          !- Vertex 7 Y-coordinate {m}
    8.550000000000,          !- Vertex 7 Z-coordinate {m}
    11.350000000000,         !- Vertex 8 X-coordinate {m}
    6.750000000000,          !- Vertex 8 Y-coordinate {m}
    8.550000000000;          !- Vertex 8 Z-coordinate {m}

BuildingSurface:Detailed,
    A6C84C,                  !- Name
    Ceiling,                 !- Surface Type
    Interior Ceiling,        !- Construction Name
    APTO03_P4,               !- Zone Name
    Surface,                 !- Outside Boundary Condition
    40C688,                  !- Outside Boundary Condition Object
    NoSun,                   !- Sun Exposure
    NoWind,                  !- Wind Exposure
    ,                        !- View Factor to Ground
    8,                       !- Number of Vertices
    11.350000000000,         !- Vertex 1 X-coordinate {m}
    6.750000000000,          !- Vertex 1 Y-coordinate {m}
    11.400000000000,         !- Vertex 1 Z-coordinate {m}
    11.350000000000,         !- Vertex 2 X-coordinate {m}
    3.600000000000,          !- Vertex 2 Y-coordinate {m}
    11.400000000000,         !- Vertex 2 Z-coordinate {m}
    9.700000000000,          !- Vertex 3 X-coordinate {m}
    3.600000000000,          !- Vertex 3 Y-coordinate {m}
    11.400000000000,         !- Vertex 3 Z-coordinate {m}
    9.700000000000,          !- Vertex 4 X-coordinate {m}
    0.000000000000,          !- Vertex 4 Y-coordinate {m}
    11.400000000000,         !- Vertex 4 Z-coordinate {m}
    15.800000000000,         !- Vertex 5 X-coordinate {m}
    0.000000000000,          !- Vertex 5 Y-coordinate {m}
    11.400000000000,         !- Vertex 5 Z-coordinate {m}
    15.800000000000,         !- Vertex 6 X-coordinate {m}
    0.950000000000,          !- Vertex 6 Y-coordinate {m}
    11.400000000000,         !- Vertex 6 Z-coordinate {m}
    17.150000000000,         !- Vertex 7 X-coordinate {m}
    0.950000000000,          !- Vertex 7 Y-coordinate {m}
    11.400000000000,         !- Vertex 7 Z-coordinate {m}
    17.150000000000,         !- Vertex 8 X-coordinate {m}
    6.750000000000,          !- Vertex 8 Y-coordinate {m}
    11.400000000000;         !- Vertex 8 Z-coordinate {m}

BuildingSurface:Detailed,
    5E9FA4,                  !- Name
    Wall,                    !- Surface Type
    Interior Wall,           !- Construction Name
    APTO03_P4,               !- Zone Name
    Surface,                 !- Outside Boundary Condition
    2000C0,                  !- Outside Boundary Condition Object
    NoSun,                   !- Sun Exposure
    NoWind,                  !- Wind Exposure
    ,                        !- View Factor to Ground
    4,                       !- Number of Vertices
    9.700000000000,          !- Vertex 1 X-coordinate {m}
    3.600000000000,          !- Vertex 1 Y-coordinate {m}
    11.400000000000,         !- Vertex 1 Z-coordinate {m}
    9.700000000000,          !- Vertex 2 X-coordinate {m}
    3.600000000000,          !- Vertex 2 Y-coordinate {m}
    8.550000000000,          !- Vertex 2 Z-coordinate {m}
    9.700000000000,          !- Vertex 3 X-coordinate {m}
    0.000000000000,          !- Vertex 3 Y-coordinate {m}
    8.550000000000,          !- Vertex 3 Z-coordinate {m}
    9.700000000000,          !- Vertex 4 X-coordinate {m}
    0.000000000000,          !- Vertex 4 Y-coordinate {m}
    11.400000000000;         !- Vertex 4 Z-coordinate {m}

BuildingSurface:Detailed,
    75AAF3,                  !- Name
    Wall,                    !- Surface Type
    Exterior Wall North,     !- Construction Name
    APTO03_P4,               !- Zone Name
    Outdoors,                !- Outside Boundary Condition
    ,                        !- Outside Boundary Condition Object
    SunExposed,              !- Sun Exposure
    WindExposed,             !- Wind Exposure
    ,                        !- View Factor to Ground
    4,                       !- Number of Vertices
    11.350000000000,         !- Vertex 1 X-coordinate {m}
    3.600000000000,          !- Vertex 1 Y-coordinate {m}
    11.400000000000,         !- Vertex 1 Z-coordinate {m}
    11.350000000000,         !- Vertex 2 X-coordinate {m}
    3.600000000000,          !- Vertex 2 Y-coordinate {m}
    8.550000000000,          !- Vertex 2 Z-coordinate {m}
    9.700000000000,          !- Vertex 3 X-coordinate {m}
    3.600000000000,          !- Vertex 3 Y-coordinate {m}
    8.550000000000,          !- Vertex 3 Z-coordinate {m}
    9.700000000000,          !- Vertex 4 X-coordinate {m}
    3.600000000000,          !- Vertex 4 Y-coordinate {m}
    11.400000000000;         !- Vertex 4 Z-coordinate {m}

BuildingSurface:Detailed,
    D5286D,                  !- Name
    Wall,                    !- Surface Type
    Exterior Wall West,      !- Construction Name
    APTO03_P4,               !- Zone Name
    Outdoors,                !- Outside Boundary Condition
    ,                        !- Outside Boundary Condition Object
    SunExposed,              !- Sun Exposure
    WindExposed,             !- Wind Exposure
    ,                        !- View Factor to Ground
    4,                       !- Number of Vertices
    11.350000000000,         !- Vertex 1 X-coordinate {m}
    6.750000000000,          !- Vertex 1 Y-coordinate {m}
    11.400000000000,         !- Vertex 1 Z-coordinate {m}
    11.350000000000,         !- Vertex 2 X-coordinate {m}
    6.750000000000,          !- Vertex 2 Y-coordinate {m}
    8.550000000000,          !- Vertex 2 Z-coordinate {m}
    11.350000000000,         !- Vertex 3 X-coordinate {m}
    3.600000000000,          !- Vertex 3 Y-coordinate {m}
    8.550000000000,          !- Vertex 3 Z-coordinate {m}
    11.350000000000,         !- Vertex 4 X-coordinate {m}
    3.600000000000,          !- Vertex 4 Y-coordinate {m}
    11.400000000000;         !- Vertex 4 Z-coordinate {m}

BuildingSurface:Detailed,
    CB13E6,                  !- Name
    Wall,                    !- Surface Type
    Exterior Wall North,     !- Construction Name
    APTO03_P4,               !- Zone Name
    Outdoors,                !- Outside Boundary Condition
    ,                        !- Outside Boundary Condition Object
    SunExposed,              !- Sun Exposure
    WindExposed,             !- Wind Exposure
    ,                        !- View Factor to Ground
    4,                       !- Number of Vertices
    17.150000000000,         !- Vertex 1 X-coordinate {m}
    6.750000000000,          !- Vertex 1 Y-coordinate {m}
    11.400000000000,         !- Vertex 1 Z-coordinate {m}
    17.150000000000,         !- Vertex 2 X-coordinate {m}
    6.750000000000,          !- Vertex 2 Y-coordinate {m}
    8.550000000000,          !- Vertex 2 Z-coordinate {m}
    11.350000000000,         !- Vertex 3 X-coordinate {m}
    6.750000000000,          !- Vertex 3 Y-coordinate {m}
    8.550000000000,          !- Vertex 3 Z-coordinate {m}
    11.350000000000,         !- Vertex 4 X-coordinate {m}
    6.750000000000,          !- Vertex 4 Y-coordinate {m}
    11.400000000000;         !- Vertex 4 Z-coordinate {m}

BuildingSurface:Detailed,
    87DF85,                  !- Name
    Wall,                    !- Surface Type
    Exterior Wall East,      !- Construction Name
    APTO03_P4,               !- Zone Name
    Outdoors,                !- Outside Boundary Condition
    ,                        !- Outside Boundary Condition Object
    SunExposed,              !- Sun Exposure
    WindExposed,             !- Wind Exposure
    ,                        !- View Factor to Ground
    4,                       !- Number of Vertices
    17.150000000000,         !- Vertex 1 X-coordinate {m}
    0.950000000000,          !- Vertex 1 Y-coordinate {m}
    11.400000000000,         !- Vertex 1 Z-coordinate {m}
    17.150000000000,         !- Vertex 2 X-coordinate {m}
    0.950000000000,          !- Vertex 2 Y-coordinate {m}
    8.550000000000,          !- Vertex 2 Z-coordinate {m}
    17.150000000000,         !- Vertex 3 X-coordinate {m}
    6.750000000000,          !- Vertex 3 Y-coordinate {m}
    8.550000000000,          !- Vertex 3 Z-coordinate {m}
    17.150000000000,         !- Vertex 4 X-coordinate {m}
    6.750000000000,          !- Vertex 4 Y-coordinate {m}
    11.400000000000;         !- Vertex 4 Z-coordinate {m}

BuildingSurface:Detailed,
    55D493,                  !- Name
    Wall,                    !- Surface Type
    Exterior Wall South,     !- Construction Name
    APTO03_P4,               !- Zone Name
    Outdoors,                !- Outside Boundary Condition
    ,                        !- Outside Boundary Condition Object
    SunExposed,              !- Sun Exposure
    WindExposed,             !- Wind Exposure
    ,                        !- View Factor to Ground
    4,                       !- Number of Vertices
    15.800000000000,         !- Vertex 1 X-coordinate {m}
    0.950000000000,          !- Vertex 1 Y-coordinate {m}
    11.400000000000,         !- Vertex 1 Z-coordinate {m}
    15.800000000000,         !- Vertex 2 X-coordinate {m}
    0.950000000000,          !- Vertex 2 Y-coordinate {m}
    8.550000000000,          !- Vertex 2 Z-coordinate {m}
    17.150000000000,         !- Vertex 3 X-coordinate {m}
    0.950000000000,          !- Vertex 3 Y-coordinate {m}
    8.550000000000,          !- Vertex 3 Z-coordinate {m}
    17.150000000000,         !- Vertex 4 X-coordinate {m}
    0.950000000000,          !- Vertex 4 Y-coordinate {m}
    11.400000000000;         !- Vertex 4 Z-coordinate {m}

BuildingSurface:Detailed,
    1D99A8,                  !- Name
    Wall,                    !- Surface Type
    Exterior Wall East,      !- Construction Name
    APTO03_P4,               !- Zone Name
    Outdoors,                !- Outside Boundary Condition
    ,                        !- Outside Boundary Condition Object
    SunExposed,              !- Sun Exposure
    WindExposed,             !- Wind Exposure
    ,                        !- View Factor to Ground
    4,                       !- Number of Vertices
    15.800000000000,         !- Vertex 1 X-coordinate {m}
    0.000000000000,          !- Vertex 1 Y-coordinate {m}
    11.400000000000,         !- Vertex 1 Z-coordinate {m}
    15.800000000000,         !- Vertex 2 X-coordinate {m}
    0.000000000000,          !- Vertex 2 Y-coordinate {m}
    8.550000000000,          !- Vertex 2 Z-coordinate {m}
    15.800000000000,         !- Vertex 3 X-coordinate {m}
    0.950000000000,          !- Vertex 3 Y-coordinate {m}
    8.550000000000,          !- Vertex 3 Z-coordinate {m}
    15.800000000000,         !- Vertex 4 X-coordinate {m}
    0.950000000000,          !- Vertex 4 Y-coordinate {m}
    11.400000000000;         !- Vertex 4 Z-coordinate {m}

BuildingSurface:Detailed,
    324A70,                  !- Name
    Wall,                    !- Surface Type
    Interior Wall,           !- Construction Name
    APTO03_P4,               !- Zone Name
    Surface,                 !- Outside Boundary Condition
    8B4D27,                  !- Outside Boundary Condition Object
    NoSun,                   !- Sun Exposure
    NoWind,                  !- Wind Exposure
    ,                        !- View Factor to Ground
    4,                       !- Number of Vertices
    9.700000000000,          !- Vertex 1 X-coordinate {m}
    0.000000000000,          !- Vertex 1 Y-coordinate {m}
    11.400000000000,         !- Vertex 1 Z-coordinate {m}
    9.700000000000,          !- Vertex 2 X-coordinate {m}
    0.000000000000,          !- Vertex 2 Y-coordinate {m}
    8.550000000000,          !- Vertex 2 Z-coordinate {m}
    15.800000000000,         !- Vertex 3 X-coordinate {m}
    0.000000000000,          !- Vertex 3 Y-coordinate {m}
    8.550000000000,          !- Vertex 3 Z-coordinate {m}
    15.800000000000,         !- Vertex 4 X-coordinate {m}
    0.000000000000,          !- Vertex 4 Y-coordinate {m}
    11.400000000000;         !- Vertex 4 Z-coordinate {m}

BuildingSurface:Detailed,
    19909B,                  !- Name
    Floor,                   !- Surface Type
    Interior Floor,          !- Construction Name
    APTO01_P4,               !- Zone Name
    Surface,                 !- Outside Boundary Condition
    E6B370,                  !- Outside Boundary Condition Object
    NoSun,                   !- Sun Exposure
    NoWind,                  !- Wind Exposure
    ,                        !- View Factor to Ground
    8,                       !- Number of Vertices
    7.450000000000,          !- Vertex 1 X-coordinate {m}
    0.000000000000,          !- Vertex 1 Y-coordinate {m}
    8.550000000000,          !- Vertex 1 Z-coordinate {m}
    7.450000000000,          !- Vertex 2 X-coordinate {m}
    -3.600000000000,         !- Vertex 2 Y-coordinate {m}
    8.550000000000,          !- Vertex 2 Z-coordinate {m}
    5.800000000000,          !- Vertex 3 X-coordinate {m}
    -3.600000000000,         !- Vertex 3 Y-coordinate {m}
    8.550000000000,          !- Vertex 3 Z-coordinate {m}
    5.800000000000,          !- Vertex 4 X-coordinate {m}
    -6.750000000000,         !- Vertex 4 Y-coordinate {m}
    8.550000000000,          !- Vertex 4 Z-coordinate {m}
    0.000000000000,          !- Vertex 5 X-coordinate {m}
    -6.750000000000,         !- Vertex 5 Y-coordinate {m}
    8.550000000000,          !- Vertex 5 Z-coordinate {m}
    0.000000000000,          !- Vertex 6 X-coordinate {m}
    -0.950000000000,         !- Vertex 6 Y-coordinate {m}
    8.550000000000,          !- Vertex 6 Z-coordinate {m}
    1.350000000000,          !- Vertex 7 X-coordinate {m}
    -0.950000000000,         !- Vertex 7 Y-coordinate {m}
    8.550000000000,          !- Vertex 7 Z-coordinate {m}
    1.350000000000,          !- Vertex 8 X-coordinate {m}
    0.000000000000,          !- Vertex 8 Y-coordinate {m}
    8.550000000000;          !- Vertex 8 Z-coordinate {m}

BuildingSurface:Detailed,
    152219,                  !- Name
    Wall,                    !- Surface Type
    Interior Wall,           !- Construction Name
    APTO01_P4,               !- Zone Name
    Surface,                 !- Outside Boundary Condition
    A15095,                  !- Outside Boundary Condition Object
    NoSun,                   !- Sun Exposure
    NoWind,                  !- Wind Exposure
    ,                        !- View Factor to Ground
    4,                       !- Number of Vertices
    7.450000000000,          !- Vertex 1 X-coordinate {m}
    0.000000000000,          !- Vertex 1 Y-coordinate {m}
    11.400000000000,         !- Vertex 1 Z-coordinate {m}
    7.450000000000,          !- Vertex 2 X-coordinate {m}
    0.000000000000,          !- Vertex 2 Y-coordinate {m}
    8.550000000000,          !- Vertex 2 Z-coordinate {m}
    1.350000000000,          !- Vertex 3 X-coordinate {m}
    0.000000000000,          !- Vertex 3 Y-coordinate {m}
    8.550000000000,          !- Vertex 3 Z-coordinate {m}
    1.350000000000,          !- Vertex 4 X-coordinate {m}
    0.000000000000,          !- Vertex 4 Y-coordinate {m}
    11.400000000000;         !- Vertex 4 Z-coordinate {m}

BuildingSurface:Detailed,
    D9AE9F,                  !- Name
    Wall,                    !- Surface Type
    Exterior Wall West,      !- Construction Name
    APTO01_P4,               !- Zone Name
    Outdoors,                !- Outside Boundary Condition
    ,                        !- Outside Boundary Condition Object
    SunExposed,              !- Sun Exposure
    WindExposed,             !- Wind Exposure
    ,                        !- View Factor to Ground
    4,                       !- Number of Vertices
    1.350000000000,          !- Vertex 1 X-coordinate {m}
    0.000000000000,          !- Vertex 1 Y-coordinate {m}
    11.400000000000,         !- Vertex 1 Z-coordinate {m}
    1.350000000000,          !- Vertex 2 X-coordinate {m}
    0.000000000000,          !- Vertex 2 Y-coordinate {m}
    8.550000000000,          !- Vertex 2 Z-coordinate {m}
    1.350000000000,          !- Vertex 3 X-coordinate {m}
    -0.950000000000,         !- Vertex 3 Y-coordinate {m}
    8.550000000000,          !- Vertex 3 Z-coordinate {m}
    1.350000000000,          !- Vertex 4 X-coordinate {m}
    -0.950000000000,         !- Vertex 4 Y-coordinate {m}
    11.400000000000;         !- Vertex 4 Z-coordinate {m}

BuildingSurface:Detailed,
    25DA12,                  !- Name
    Wall,                    !- Surface Type
    Exterior Wall West,      !- Construction Name
    APTO01_P4,               !- Zone Name
    Outdoors,                !- Outside Boundary Condition
    ,                        !- Outside Boundary Condition Object
    SunExposed,              !- Sun Exposure
    WindExposed,             !- Wind Exposure
    ,                        !- View Factor to Ground
    4,                       !- Number of Vertices
    0.000000000000,          !- Vertex 1 X-coordinate {m}
    -0.950000000000,         !- Vertex 1 Y-coordinate {m}
    11.400000000000,         !- Vertex 1 Z-coordinate {m}
    0.000000000000,          !- Vertex 2 X-coordinate {m}
    -0.950000000000,         !- Vertex 2 Y-coordinate {m}
    8.550000000000,          !- Vertex 2 Z-coordinate {m}
    0.000000000000,          !- Vertex 3 X-coordinate {m}
    -6.750000000000,         !- Vertex 3 Y-coordinate {m}
    8.550000000000,          !- Vertex 3 Z-coordinate {m}
    0.000000000000,          !- Vertex 4 X-coordinate {m}
    -6.750000000000,         !- Vertex 4 Y-coordinate {m}
    11.400000000000;         !- Vertex 4 Z-coordinate {m}

BuildingSurface:Detailed,
    B01E54,                  !- Name
    Ceiling,                 !- Surface Type
    Interior Ceiling,        !- Construction Name
    APTO01_P4,               !- Zone Name
    Surface,                 !- Outside Boundary Condition
    5AF199,                  !- Outside Boundary Condition Object
    NoSun,                   !- Sun Exposure
    NoWind,                  !- Wind Exposure
    ,                        !- View Factor to Ground
    8,                       !- Number of Vertices
    0.000000000000,          !- Vertex 1 X-coordinate {m}
    -0.950000000000,         !- Vertex 1 Y-coordinate {m}
    11.400000000000,         !- Vertex 1 Z-coordinate {m}
    0.000000000000,          !- Vertex 2 X-coordinate {m}
    -6.750000000000,         !- Vertex 2 Y-coordinate {m}
    11.400000000000,         !- Vertex 2 Z-coordinate {m}
    5.800000000000,          !- Vertex 3 X-coordinate {m}
    -6.750000000000,         !- Vertex 3 Y-coordinate {m}
    11.400000000000,         !- Vertex 3 Z-coordinate {m}
    5.800000000000,          !- Vertex 4 X-coordinate {m}
    -3.600000000000,         !- Vertex 4 Y-coordinate {m}
    11.400000000000,         !- Vertex 4 Z-coordinate {m}
    7.450000000000,          !- Vertex 5 X-coordinate {m}
    -3.600000000000,         !- Vertex 5 Y-coordinate {m}
    11.400000000000,         !- Vertex 5 Z-coordinate {m}
    7.450000000000,          !- Vertex 6 X-coordinate {m}
    0.000000000000,          !- Vertex 6 Y-coordinate {m}
    11.400000000000,         !- Vertex 6 Z-coordinate {m}
    1.350000000000,          !- Vertex 7 X-coordinate {m}
    0.000000000000,          !- Vertex 7 Y-coordinate {m}
    11.400000000000,         !- Vertex 7 Z-coordinate {m}
    1.350000000000,          !- Vertex 8 X-coordinate {m}
    -0.950000000000,         !- Vertex 8 Y-coordinate {m}
    11.400000000000;         !- Vertex 8 Z-coordinate {m}

BuildingSurface:Detailed,
    794D10,                  !- Name
    Wall,                    !- Surface Type
    Exterior Wall North,     !- Construction Name
    APTO01_P4,               !- Zone Name
    Outdoors,                !- Outside Boundary Condition
    ,                        !- Outside Boundary Condition Object
    SunExposed,              !- Sun Exposure
    WindExposed,             !- Wind Exposure
    ,                        !- View Factor to Ground
    4,                       !- Number of Vertices
    1.350000000000,          !- Vertex 1 X-coordinate {m}
    -0.950000000000,         !- Vertex 1 Y-coordinate {m}
    11.400000000000,         !- Vertex 1 Z-coordinate {m}
    1.350000000000,          !- Vertex 2 X-coordinate {m}
    -0.950000000000,         !- Vertex 2 Y-coordinate {m}
    8.550000000000,          !- Vertex 2 Z-coordinate {m}
    0.000000000000,          !- Vertex 3 X-coordinate {m}
    -0.950000000000,         !- Vertex 3 Y-coordinate {m}
    8.550000000000,          !- Vertex 3 Z-coordinate {m}
    0.000000000000,          !- Vertex 4 X-coordinate {m}
    -0.950000000000,         !- Vertex 4 Y-coordinate {m}
    11.400000000000;         !- Vertex 4 Z-coordinate {m}

BuildingSurface:Detailed,
    B38F12,                  !- Name
    Wall,                    !- Surface Type
    Interior Wall,           !- Construction Name
    APTO01_P4,               !- Zone Name
    Surface,                 !- Outside Boundary Condition
    62BA52,                  !- Outside Boundary Condition Object
    NoSun,                   !- Sun Exposure
    NoWind,                  !- Wind Exposure
    ,                        !- View Factor to Ground
    4,                       !- Number of Vertices
    7.450000000000,          !- Vertex 1 X-coordinate {m}
    -3.600000000000,         !- Vertex 1 Y-coordinate {m}
    11.400000000000,         !- Vertex 1 Z-coordinate {m}
    7.450000000000,          !- Vertex 2 X-coordinate {m}
    -3.600000000000,         !- Vertex 2 Y-coordinate {m}
    8.550000000000,          !- Vertex 2 Z-coordinate {m}
    7.450000000000,          !- Vertex 3 X-coordinate {m}
    0.000000000000,          !- Vertex 3 Y-coordinate {m}
    8.550000000000,          !- Vertex 3 Z-coordinate {m}
    7.450000000000,          !- Vertex 4 X-coordinate {m}
    0.000000000000,          !- Vertex 4 Y-coordinate {m}
    11.400000000000;         !- Vertex 4 Z-coordinate {m}

BuildingSurface:Detailed,
    D8882F,                  !- Name
    Wall,                    !- Surface Type
    Exterior Wall East,      !- Construction Name
    APTO01_P4,               !- Zone Name
    Outdoors,                !- Outside Boundary Condition
    ,                        !- Outside Boundary Condition Object
    SunExposed,              !- Sun Exposure
    WindExposed,             !- Wind Exposure
    ,                        !- View Factor to Ground
    4,                       !- Number of Vertices
    5.800000000000,          !- Vertex 1 X-coordinate {m}
    -6.750000000000,         !- Vertex 1 Y-coordinate {m}
    11.400000000000,         !- Vertex 1 Z-coordinate {m}
    5.800000000000,          !- Vertex 2 X-coordinate {m}
    -6.750000000000,         !- Vertex 2 Y-coordinate {m}
    8.550000000000,          !- Vertex 2 Z-coordinate {m}
    5.800000000000,          !- Vertex 3 X-coordinate {m}
    -3.600000000000,         !- Vertex 3 Y-coordinate {m}
    8.550000000000,          !- Vertex 3 Z-coordinate {m}
    5.800000000000,          !- Vertex 4 X-coordinate {m}
    -3.600000000000,         !- Vertex 4 Y-coordinate {m}
    11.400000000000;         !- Vertex 4 Z-coordinate {m}

BuildingSurface:Detailed,
    A959D0,                  !- Name
    Wall,                    !- Surface Type
    Exterior Wall South,     !- Construction Name
    APTO01_P4,               !- Zone Name
    Outdoors,                !- Outside Boundary Condition
    ,                        !- Outside Boundary Condition Object
    SunExposed,              !- Sun Exposure
    WindExposed,             !- Wind Exposure
    ,                        !- View Factor to Ground
    4,                       !- Number of Vertices
    5.800000000000,          !- Vertex 1 X-coordinate {m}
    -3.600000000000,         !- Vertex 1 Y-coordinate {m}
    11.400000000000,         !- Vertex 1 Z-coordinate {m}
    5.800000000000,          !- Vertex 2 X-coordinate {m}
    -3.600000000000,         !- Vertex 2 Y-coordinate {m}
    8.550000000000,          !- Vertex 2 Z-coordinate {m}
    7.450000000000,          !- Vertex 3 X-coordinate {m}
    -3.600000000000,         !- Vertex 3 Y-coordinate {m}
    8.550000000000,          !- Vertex 3 Z-coordinate {m}
    7.450000000000,          !- Vertex 4 X-coordinate {m}
    -3.600000000000,         !- Vertex 4 Y-coordinate {m}
    11.400000000000;         !- Vertex 4 Z-coordinate {m}

BuildingSurface:Detailed,
    1CEE0F,                  !- Name
    Wall,                    !- Surface Type
    Exterior Wall South,     !- Construction Name
    APTO01_P4,               !- Zone Name
    Outdoors,                !- Outside Boundary Condition
    ,                        !- Outside Boundary Condition Object
    SunExposed,              !- Sun Exposure
    WindExposed,             !- Wind Exposure
    ,                        !- View Factor to Ground
    4,                       !- Number of Vertices
    0.000000000000,          !- Vertex 1 X-coordinate {m}
    -6.750000000000,         !- Vertex 1 Y-coordinate {m}
    11.400000000000,         !- Vertex 1 Z-coordinate {m}
    0.000000000000,          !- Vertex 2 X-coordinate {m}
    -6.750000000000,         !- Vertex 2 Y-coordinate {m}
    8.550000000000,          !- Vertex 2 Z-coordinate {m}
    5.800000000000,          !- Vertex 3 X-coordinate {m}
    -6.750000000000,         !- Vertex 3 Y-coordinate {m}
    8.550000000000,          !- Vertex 3 Z-coordinate {m}
    5.800000000000,          !- Vertex 4 X-coordinate {m}
    -6.750000000000,         !- Vertex 4 Y-coordinate {m}
    11.400000000000;         !- Vertex 4 Z-coordinate {m}

BuildingSurface:Detailed,
    1B438B,                  !- Name
    Wall,                    !- Surface Type
    Exterior Wall West,      !- Construction Name
    APTO02_P4,               !- Zone Name
    Outdoors,                !- Outside Boundary Condition
    ,                        !- Outside Boundary Condition Object
    SunExposed,              !- Sun Exposure
    WindExposed,             !- Wind Exposure
    ,                        !- View Factor to Ground
    4,                       !- Number of Vertices
    0.000000000000,          !- Vertex 1 X-coordinate {m}
    6.750000000000,          !- Vertex 1 Y-coordinate {m}
    11.400000000000,         !- Vertex 1 Z-coordinate {m}
    0.000000000000,          !- Vertex 2 X-coordinate {m}
    6.750000000000,          !- Vertex 2 Y-coordinate {m}
    8.550000000000,          !- Vertex 2 Z-coordinate {m}
    0.000000000000,          !- Vertex 3 X-coordinate {m}
    0.950000000000,          !- Vertex 3 Y-coordinate {m}
    8.550000000000,          !- Vertex 3 Z-coordinate {m}
    0.000000000000,          !- Vertex 4 X-coordinate {m}
    0.950000000000,          !- Vertex 4 Y-coordinate {m}
    11.400000000000;         !- Vertex 4 Z-coordinate {m}

BuildingSurface:Detailed,
    D6FF2C,                  !- Name
    Wall,                    !- Surface Type
    Exterior Wall South,     !- Construction Name
    APTO02_P4,               !- Zone Name
    Outdoors,                !- Outside Boundary Condition
    ,                        !- Outside Boundary Condition Object
    SunExposed,              !- Sun Exposure
    WindExposed,             !- Wind Exposure
    ,                        !- View Factor to Ground
    4,                       !- Number of Vertices
    0.000000000000,          !- Vertex 1 X-coordinate {m}
    0.950000000000,          !- Vertex 1 Y-coordinate {m}
    11.400000000000,         !- Vertex 1 Z-coordinate {m}
    0.000000000000,          !- Vertex 2 X-coordinate {m}
    0.950000000000,          !- Vertex 2 Y-coordinate {m}
    8.550000000000,          !- Vertex 2 Z-coordinate {m}
    1.350000000000,          !- Vertex 3 X-coordinate {m}
    0.950000000000,          !- Vertex 3 Y-coordinate {m}
    8.550000000000,          !- Vertex 3 Z-coordinate {m}
    1.350000000000,          !- Vertex 4 X-coordinate {m}
    0.950000000000,          !- Vertex 4 Y-coordinate {m}
    11.400000000000;         !- Vertex 4 Z-coordinate {m}

BuildingSurface:Detailed,
    52E8D2,                  !- Name
    Wall,                    !- Surface Type
    Interior Wall,           !- Construction Name
    APTO02_P4,               !- Zone Name
    Surface,                 !- Outside Boundary Condition
    1EF0EA,                  !- Outside Boundary Condition Object
    NoSun,                   !- Sun Exposure
    NoWind,                  !- Wind Exposure
    ,                        !- View Factor to Ground
    4,                       !- Number of Vertices
    7.450000000000,          !- Vertex 1 X-coordinate {m}
    0.000000000000,          !- Vertex 1 Y-coordinate {m}
    11.400000000000,         !- Vertex 1 Z-coordinate {m}
    7.450000000000,          !- Vertex 2 X-coordinate {m}
    0.000000000000,          !- Vertex 2 Y-coordinate {m}
    8.550000000000,          !- Vertex 2 Z-coordinate {m}
    7.450000000000,          !- Vertex 3 X-coordinate {m}
    3.600000000000,          !- Vertex 3 Y-coordinate {m}
    8.550000000000,          !- Vertex 3 Z-coordinate {m}
    7.450000000000,          !- Vertex 4 X-coordinate {m}
    3.600000000000,          !- Vertex 4 Y-coordinate {m}
    11.400000000000;         !- Vertex 4 Z-coordinate {m}

BuildingSurface:Detailed,
    F4A40D,                  !- Name
    Wall,                    !- Surface Type
    Exterior Wall East,      !- Construction Name
    APTO02_P4,               !- Zone Name
    Outdoors,                !- Outside Boundary Condition
    ,                        !- Outside Boundary Condition Object
    SunExposed,              !- Sun Exposure
    WindExposed,             !- Wind Exposure
    ,                        !- View Factor to Ground
    4,                       !- Number of Vertices
    5.800000000000,          !- Vertex 1 X-coordinate {m}
    3.600000000000,          !- Vertex 1 Y-coordinate {m}
    11.400000000000,         !- Vertex 1 Z-coordinate {m}
    5.800000000000,          !- Vertex 2 X-coordinate {m}
    3.600000000000,          !- Vertex 2 Y-coordinate {m}
    8.550000000000,          !- Vertex 2 Z-coordinate {m}
    5.800000000000,          !- Vertex 3 X-coordinate {m}
    6.750000000000,          !- Vertex 3 Y-coordinate {m}
    8.550000000000,          !- Vertex 3 Z-coordinate {m}
    5.800000000000,          !- Vertex 4 X-coordinate {m}
    6.750000000000,          !- Vertex 4 Y-coordinate {m}
    11.400000000000;         !- Vertex 4 Z-coordinate {m}

BuildingSurface:Detailed,
    D6A0DF,                  !- Name
    Wall,                    !- Surface Type
    Exterior Wall North,     !- Construction Name
    APTO02_P4,               !- Zone Name
    Outdoors,                !- Outside Boundary Condition
    ,                        !- Outside Boundary Condition Object
    SunExposed,              !- Sun Exposure
    WindExposed,             !- Wind Exposure
    ,                        !- View Factor to Ground
    4,                       !- Number of Vertices
    7.450000000000,          !- Vertex 1 X-coordinate {m}
    3.600000000000,          !- Vertex 1 Y-coordinate {m}
    11.400000000000,         !- Vertex 1 Z-coordinate {m}
    7.450000000000,          !- Vertex 2 X-coordinate {m}
    3.600000000000,          !- Vertex 2 Y-coordinate {m}
    8.550000000000,          !- Vertex 2 Z-coordinate {m}
    5.800000000000,          !- Vertex 3 X-coordinate {m}
    3.600000000000,          !- Vertex 3 Y-coordinate {m}
    8.550000000000,          !- Vertex 3 Z-coordinate {m}
    5.800000000000,          !- Vertex 4 X-coordinate {m}
    3.600000000000,          !- Vertex 4 Y-coordinate {m}
    11.400000000000;         !- Vertex 4 Z-coordinate {m}

BuildingSurface:Detailed,
    967C92,                  !- Name
    Wall,                    !- Surface Type
    Exterior Wall West,      !- Construction Name
    APTO02_P4,               !- Zone Name
    Outdoors,                !- Outside Boundary Condition
    ,                        !- Outside Boundary Condition Object
    SunExposed,              !- Sun Exposure
    WindExposed,             !- Wind Exposure
    ,                        !- View Factor to Ground
    4,                       !- Number of Vertices
    1.350000000000,          !- Vertex 1 X-coordinate {m}
    0.950000000000,          !- Vertex 1 Y-coordinate {m}
    11.400000000000,         !- Vertex 1 Z-coordinate {m}
    1.350000000000,          !- Vertex 2 X-coordinate {m}
    0.950000000000,          !- Vertex 2 Y-coordinate {m}
    8.550000000000,          !- Vertex 2 Z-coordinate {m}
    1.350000000000,          !- Vertex 3 X-coordinate {m}
    0.000000000000,          !- Vertex 3 Y-coordinate {m}
    8.550000000000,          !- Vertex 3 Z-coordinate {m}
    1.350000000000,          !- Vertex 4 X-coordinate {m}
    0.000000000000,          !- Vertex 4 Y-coordinate {m}
    11.400000000000;         !- Vertex 4 Z-coordinate {m}

BuildingSurface:Detailed,
    840095,                  !- Name
    Wall,                    !- Surface Type
    Exterior Wall North,     !- Construction Name
    APTO02_P4,               !- Zone Name
    Outdoors,                !- Outside Boundary Condition
    ,                        !- Outside Boundary Condition Object
    SunExposed,              !- Sun Exposure
    WindExposed,             !- Wind Exposure
    ,                        !- View Factor to Ground
    4,                       !- Number of Vertices
    5.800000000000,          !- Vertex 1 X-coordinate {m}
    6.750000000000,          !- Vertex 1 Y-coordinate {m}
    11.400000000000,         !- Vertex 1 Z-coordinate {m}
    5.800000000000,          !- Vertex 2 X-coordinate {m}
    6.750000000000,          !- Vertex 2 Y-coordinate {m}
    8.550000000000,          !- Vertex 2 Z-coordinate {m}
    0.000000000000,          !- Vertex 3 X-coordinate {m}
    6.750000000000,          !- Vertex 3 Y-coordinate {m}
    8.550000000000,          !- Vertex 3 Z-coordinate {m}
    0.000000000000,          !- Vertex 4 X-coordinate {m}
    6.750000000000,          !- Vertex 4 Y-coordinate {m}
    11.400000000000;         !- Vertex 4 Z-coordinate {m}

BuildingSurface:Detailed,
    A15095,                  !- Name
    Wall,                    !- Surface Type
    Interior Wall,           !- Construction Name
    APTO02_P4,               !- Zone Name
    Surface,                 !- Outside Boundary Condition
    152219,                  !- Outside Boundary Condition Object
    NoSun,                   !- Sun Exposure
    NoWind,                  !- Wind Exposure
    ,                        !- View Factor to Ground
    4,                       !- Number of Vertices
    1.350000000000,          !- Vertex 1 X-coordinate {m}
    0.000000000000,          !- Vertex 1 Y-coordinate {m}
    11.400000000000,         !- Vertex 1 Z-coordinate {m}
    1.350000000000,          !- Vertex 2 X-coordinate {m}
    0.000000000000,          !- Vertex 2 Y-coordinate {m}
    8.550000000000,          !- Vertex 2 Z-coordinate {m}
    7.450000000000,          !- Vertex 3 X-coordinate {m}
    0.000000000000,          !- Vertex 3 Y-coordinate {m}
    8.550000000000,          !- Vertex 3 Z-coordinate {m}
    7.450000000000,          !- Vertex 4 X-coordinate {m}
    0.000000000000,          !- Vertex 4 Y-coordinate {m}
    11.400000000000;         !- Vertex 4 Z-coordinate {m}

BuildingSurface:Detailed,
    15EE7D,                  !- Name
    Ceiling,                 !- Surface Type
    Interior Ceiling,        !- Construction Name
    APTO02_P4,               !- Zone Name
    Surface,                 !- Outside Boundary Condition
    80994F,                  !- Outside Boundary Condition Object
    NoSun,                   !- Sun Exposure
    NoWind,                  !- Wind Exposure
    ,                        !- View Factor to Ground
    8,                       !- Number of Vertices
    0.000000000000,          !- Vertex 1 X-coordinate {m}
    6.750000000000,          !- Vertex 1 Y-coordinate {m}
    11.400000000000,         !- Vertex 1 Z-coordinate {m}
    0.000000000000,          !- Vertex 2 X-coordinate {m}
    0.950000000000,          !- Vertex 2 Y-coordinate {m}
    11.400000000000,         !- Vertex 2 Z-coordinate {m}
    1.350000000000,          !- Vertex 3 X-coordinate {m}
    0.950000000000,          !- Vertex 3 Y-coordinate {m}
    11.400000000000,         !- Vertex 3 Z-coordinate {m}
    1.350000000000,          !- Vertex 4 X-coordinate {m}
    0.000000000000,          !- Vertex 4 Y-coordinate {m}
    11.400000000000,         !- Vertex 4 Z-coordinate {m}
    7.450000000000,          !- Vertex 5 X-coordinate {m}
    0.000000000000,          !- Vertex 5 Y-coordinate {m}
    11.400000000000,         !- Vertex 5 Z-coordinate {m}
    7.450000000000,          !- Vertex 6 X-coordinate {m}
    3.600000000000,          !- Vertex 6 Y-coordinate {m}
    11.400000000000,         !- Vertex 6 Z-coordinate {m}
    5.800000000000,          !- Vertex 7 X-coordinate {m}
    3.600000000000,          !- Vertex 7 Y-coordinate {m}
    11.400000000000,         !- Vertex 7 Z-coordinate {m}
    5.800000000000,          !- Vertex 8 X-coordinate {m}
    6.750000000000,          !- Vertex 8 Y-coordinate {m}
    11.400000000000;         !- Vertex 8 Z-coordinate {m}

BuildingSurface:Detailed,
    4D298F,                  !- Name
    Floor,                   !- Surface Type
    Interior Floor,          !- Construction Name
    APTO02_P4,               !- Zone Name
    Surface,                 !- Outside Boundary Condition
    B6D426,                  !- Outside Boundary Condition Object
    NoSun,                   !- Sun Exposure
    NoWind,                  !- Wind Exposure
    ,                        !- View Factor to Ground
    8,                       !- Number of Vertices
    5.800000000000,          !- Vertex 1 X-coordinate {m}
    6.750000000000,          !- Vertex 1 Y-coordinate {m}
    8.550000000000,          !- Vertex 1 Z-coordinate {m}
    5.800000000000,          !- Vertex 2 X-coordinate {m}
    3.600000000000,          !- Vertex 2 Y-coordinate {m}
    8.550000000000,          !- Vertex 2 Z-coordinate {m}
    7.450000000000,          !- Vertex 3 X-coordinate {m}
    3.600000000000,          !- Vertex 3 Y-coordinate {m}
    8.550000000000,          !- Vertex 3 Z-coordinate {m}
    7.450000000000,          !- Vertex 4 X-coordinate {m}
    0.000000000000,          !- Vertex 4 Y-coordinate {m}
    8.550000000000,          !- Vertex 4 Z-coordinate {m}
    1.350000000000,          !- Vertex 5 X-coordinate {m}
    0.000000000000,          !- Vertex 5 Y-coordinate {m}
    8.550000000000,          !- Vertex 5 Z-coordinate {m}
    1.350000000000,          !- Vertex 6 X-coordinate {m}
    0.950000000000,          !- Vertex 6 Y-coordinate {m}
    8.550000000000,          !- Vertex 6 Z-coordinate {m}
    0.000000000000,          !- Vertex 7 X-coordinate {m}
    0.950000000000,          !- Vertex 7 Y-coordinate {m}
    8.550000000000,          !- Vertex 7 Z-coordinate {m}
    0.000000000000,          !- Vertex 8 X-coordinate {m}
    6.750000000000,          !- Vertex 8 Y-coordinate {m}
    8.550000000000;          !- Vertex 8 Z-coordinate {m}

BuildingSurface:Detailed,
    1D7A6A,                  !- Name
    Floor,                   !- Surface Type
    Interior Floor,          !- Construction Name
    APTO04_P4,               !- Zone Name
    Surface,                 !- Outside Boundary Condition
    C7D53D,                  !- Outside Boundary Condition Object
    NoSun,                   !- Sun Exposure
    NoWind,                  !- Wind Exposure
    ,                        !- View Factor to Ground
    8,                       !- Number of Vertices
    15.800000000000,         !- Vertex 1 X-coordinate {m}
    0.000000000000,          !- Vertex 1 Y-coordinate {m}
    8.550000000000,          !- Vertex 1 Z-coordinate {m}
    15.800000000000,         !- Vertex 2 X-coordinate {m}
    -0.950000000000,         !- Vertex 2 Y-coordinate {m}
    8.550000000000,          !- Vertex 2 Z-coordinate {m}
    17.150000000000,         !- Vertex 3 X-coordinate {m}
    -0.950000000000,         !- Vertex 3 Y-coordinate {m}
    8.550000000000,          !- Vertex 3 Z-coordinate {m}
    17.150000000000,         !- Vertex 4 X-coordinate {m}
    -6.750000000000,         !- Vertex 4 Y-coordinate {m}
    8.550000000000,          !- Vertex 4 Z-coordinate {m}
    11.350000000000,         !- Vertex 5 X-coordinate {m}
    -6.750000000000,         !- Vertex 5 Y-coordinate {m}
    8.550000000000,          !- Vertex 5 Z-coordinate {m}
    11.350000000000,         !- Vertex 6 X-coordinate {m}
    -3.600000000000,         !- Vertex 6 Y-coordinate {m}
    8.550000000000,          !- Vertex 6 Z-coordinate {m}
    9.700000000000,          !- Vertex 7 X-coordinate {m}
    -3.600000000000,         !- Vertex 7 Y-coordinate {m}
    8.550000000000,          !- Vertex 7 Z-coordinate {m}
    9.700000000000,          !- Vertex 8 X-coordinate {m}
    0.000000000000,          !- Vertex 8 Y-coordinate {m}
    8.550000000000;          !- Vertex 8 Z-coordinate {m}

BuildingSurface:Detailed,
    AAE1CD,                  !- Name
    Ceiling,                 !- Surface Type
    Interior Ceiling,        !- Construction Name
    APTO04_P4,               !- Zone Name
    Surface,                 !- Outside Boundary Condition
    4508E7,                  !- Outside Boundary Condition Object
    NoSun,                   !- Sun Exposure
    NoWind,                  !- Wind Exposure
    ,                        !- View Factor to Ground
    8,                       !- Number of Vertices
    9.700000000000,          !- Vertex 1 X-coordinate {m}
    0.000000000000,          !- Vertex 1 Y-coordinate {m}
    11.400000000000,         !- Vertex 1 Z-coordinate {m}
    9.700000000000,          !- Vertex 2 X-coordinate {m}
    -3.600000000000,         !- Vertex 2 Y-coordinate {m}
    11.400000000000,         !- Vertex 2 Z-coordinate {m}
    11.350000000000,         !- Vertex 3 X-coordinate {m}
    -3.600000000000,         !- Vertex 3 Y-coordinate {m}
    11.400000000000,         !- Vertex 3 Z-coordinate {m}
    11.350000000000,         !- Vertex 4 X-coordinate {m}
    -6.750000000000,         !- Vertex 4 Y-coordinate {m}
    11.400000000000,         !- Vertex 4 Z-coordinate {m}
    17.150000000000,         !- Vertex 5 X-coordinate {m}
    -6.750000000000,         !- Vertex 5 Y-coordinate {m}
    11.400000000000,         !- Vertex 5 Z-coordinate {m}
    17.150000000000,         !- Vertex 6 X-coordinate {m}
    -0.950000000000,         !- Vertex 6 Y-coordinate {m}
    11.400000000000,         !- Vertex 6 Z-coordinate {m}
    15.800000000000,         !- Vertex 7 X-coordinate {m}
    -0.950000000000,         !- Vertex 7 Y-coordinate {m}
    11.400000000000,         !- Vertex 7 Z-coordinate {m}
    15.800000000000,         !- Vertex 8 X-coordinate {m}
    0.000000000000,          !- Vertex 8 Y-coordinate {m}
    11.400000000000;         !- Vertex 8 Z-coordinate {m}

BuildingSurface:Detailed,
    8B4D27,                  !- Name
    Wall,                    !- Surface Type
    Interior Wall,           !- Construction Name
    APTO04_P4,               !- Zone Name
    Surface,                 !- Outside Boundary Condition
    324A70,                  !- Outside Boundary Condition Object
    NoSun,                   !- Sun Exposure
    NoWind,                  !- Wind Exposure
    ,                        !- View Factor to Ground
    4,                       !- Number of Vertices
    15.800000000000,         !- Vertex 1 X-coordinate {m}
    0.000000000000,          !- Vertex 1 Y-coordinate {m}
    11.400000000000,         !- Vertex 1 Z-coordinate {m}
    15.800000000000,         !- Vertex 2 X-coordinate {m}
    0.000000000000,          !- Vertex 2 Y-coordinate {m}
    8.550000000000,          !- Vertex 2 Z-coordinate {m}
    9.700000000000,          !- Vertex 3 X-coordinate {m}
    0.000000000000,          !- Vertex 3 Y-coordinate {m}
    8.550000000000,          !- Vertex 3 Z-coordinate {m}
    9.700000000000,          !- Vertex 4 X-coordinate {m}
    0.000000000000,          !- Vertex 4 Y-coordinate {m}
    11.400000000000;         !- Vertex 4 Z-coordinate {m}

BuildingSurface:Detailed,
    61E410,                  !- Name
    Wall,                    !- Surface Type
    Exterior Wall East,      !- Construction Name
    APTO04_P4,               !- Zone Name
    Outdoors,                !- Outside Boundary Condition
    ,                        !- Outside Boundary Condition Object
    SunExposed,              !- Sun Exposure
    WindExposed,             !- Wind Exposure
    ,                        !- View Factor to Ground
    4,                       !- Number of Vertices
    15.800000000000,         !- Vertex 1 X-coordinate {m}
    -0.950000000000,         !- Vertex 1 Y-coordinate {m}
    11.400000000000,         !- Vertex 1 Z-coordinate {m}
    15.800000000000,         !- Vertex 2 X-coordinate {m}
    -0.950000000000,         !- Vertex 2 Y-coordinate {m}
    8.550000000000,          !- Vertex 2 Z-coordinate {m}
    15.800000000000,         !- Vertex 3 X-coordinate {m}
    0.000000000000,          !- Vertex 3 Y-coordinate {m}
    8.550000000000,          !- Vertex 3 Z-coordinate {m}
    15.800000000000,         !- Vertex 4 X-coordinate {m}
    0.000000000000,          !- Vertex 4 Y-coordinate {m}
    11.400000000000;         !- Vertex 4 Z-coordinate {m}

BuildingSurface:Detailed,
    7D5F0A,                  !- Name
    Wall,                    !- Surface Type
    Exterior Wall North,     !- Construction Name
    APTO04_P4,               !- Zone Name
    Outdoors,                !- Outside Boundary Condition
    ,                        !- Outside Boundary Condition Object
    SunExposed,              !- Sun Exposure
    WindExposed,             !- Wind Exposure
    ,                        !- View Factor to Ground
    4,                       !- Number of Vertices
    17.150000000000,         !- Vertex 1 X-coordinate {m}
    -0.950000000000,         !- Vertex 1 Y-coordinate {m}
    11.400000000000,         !- Vertex 1 Z-coordinate {m}
    17.150000000000,         !- Vertex 2 X-coordinate {m}
    -0.950000000000,         !- Vertex 2 Y-coordinate {m}
    8.550000000000,          !- Vertex 2 Z-coordinate {m}
    15.800000000000,         !- Vertex 3 X-coordinate {m}
    -0.950000000000,         !- Vertex 3 Y-coordinate {m}
    8.550000000000,          !- Vertex 3 Z-coordinate {m}
    15.800000000000,         !- Vertex 4 X-coordinate {m}
    -0.950000000000,         !- Vertex 4 Y-coordinate {m}
    11.400000000000;         !- Vertex 4 Z-coordinate {m}

BuildingSurface:Detailed,
    E9C7FF,                  !- Name
    Wall,                    !- Surface Type
    Exterior Wall East,      !- Construction Name
    APTO04_P4,               !- Zone Name
    Outdoors,                !- Outside Boundary Condition
    ,                        !- Outside Boundary Condition Object
    SunExposed,              !- Sun Exposure
    WindExposed,             !- Wind Exposure
    ,                        !- View Factor to Ground
    4,                       !- Number of Vertices
    17.150000000000,         !- Vertex 1 X-coordinate {m}
    -6.750000000000,         !- Vertex 1 Y-coordinate {m}
    11.400000000000,         !- Vertex 1 Z-coordinate {m}
    17.150000000000,         !- Vertex 2 X-coordinate {m}
    -6.750000000000,         !- Vertex 2 Y-coordinate {m}
    8.550000000000,          !- Vertex 2 Z-coordinate {m}
    17.150000000000,         !- Vertex 3 X-coordinate {m}
    -0.950000000000,         !- Vertex 3 Y-coordinate {m}
    8.550000000000,          !- Vertex 3 Z-coordinate {m}
    17.150000000000,         !- Vertex 4 X-coordinate {m}
    -0.950000000000,         !- Vertex 4 Y-coordinate {m}
    11.400000000000;         !- Vertex 4 Z-coordinate {m}

BuildingSurface:Detailed,
    6A5F55,                  !- Name
    Wall,                    !- Surface Type
    Exterior Wall South,     !- Construction Name
    APTO04_P4,               !- Zone Name
    Outdoors,                !- Outside Boundary Condition
    ,                        !- Outside Boundary Condition Object
    SunExposed,              !- Sun Exposure
    WindExposed,             !- Wind Exposure
    ,                        !- View Factor to Ground
    4,                       !- Number of Vertices
    11.350000000000,         !- Vertex 1 X-coordinate {m}
    -6.750000000000,         !- Vertex 1 Y-coordinate {m}
    11.400000000000,         !- Vertex 1 Z-coordinate {m}
    11.350000000000,         !- Vertex 2 X-coordinate {m}
    -6.750000000000,         !- Vertex 2 Y-coordinate {m}
    8.550000000000,          !- Vertex 2 Z-coordinate {m}
    17.150000000000,         !- Vertex 3 X-coordinate {m}
    -6.750000000000,         !- Vertex 3 Y-coordinate {m}
    8.550000000000,          !- Vertex 3 Z-coordinate {m}
    17.150000000000,         !- Vertex 4 X-coordinate {m}
    -6.750000000000,         !- Vertex 4 Y-coordinate {m}
    11.400000000000;         !- Vertex 4 Z-coordinate {m}

BuildingSurface:Detailed,
    2B6D22,                  !- Name
    Wall,                    !- Surface Type
    Exterior Wall West,      !- Construction Name
    APTO04_P4,               !- Zone Name
    Outdoors,                !- Outside Boundary Condition
    ,                        !- Outside Boundary Condition Object
    SunExposed,              !- Sun Exposure
    WindExposed,             !- Wind Exposure
    ,                        !- View Factor to Ground
    4,                       !- Number of Vertices
    11.350000000000,         !- Vertex 1 X-coordinate {m}
    -3.600000000000,         !- Vertex 1 Y-coordinate {m}
    11.400000000000,         !- Vertex 1 Z-coordinate {m}
    11.350000000000,         !- Vertex 2 X-coordinate {m}
    -3.600000000000,         !- Vertex 2 Y-coordinate {m}
    8.550000000000,          !- Vertex 2 Z-coordinate {m}
    11.350000000000,         !- Vertex 3 X-coordinate {m}
    -6.750000000000,         !- Vertex 3 Y-coordinate {m}
    8.550000000000,          !- Vertex 3 Z-coordinate {m}
    11.350000000000,         !- Vertex 4 X-coordinate {m}
    -6.750000000000,         !- Vertex 4 Y-coordinate {m}
    11.400000000000;         !- Vertex 4 Z-coordinate {m}

BuildingSurface:Detailed,
    3D56D5,                  !- Name
    Wall,                    !- Surface Type
    Interior Wall,           !- Construction Name
    APTO04_P4,               !- Zone Name
    Surface,                 !- Outside Boundary Condition
    BC408F,                  !- Outside Boundary Condition Object
    NoSun,                   !- Sun Exposure
    NoWind,                  !- Wind Exposure
    ,                        !- View Factor to Ground
    4,                       !- Number of Vertices
    9.700000000000,          !- Vertex 1 X-coordinate {m}
    0.000000000000,          !- Vertex 1 Y-coordinate {m}
    11.400000000000,         !- Vertex 1 Z-coordinate {m}
    9.700000000000,          !- Vertex 2 X-coordinate {m}
    0.000000000000,          !- Vertex 2 Y-coordinate {m}
    8.550000000000,          !- Vertex 2 Z-coordinate {m}
    9.700000000000,          !- Vertex 3 X-coordinate {m}
    -3.600000000000,         !- Vertex 3 Y-coordinate {m}
    8.550000000000,          !- Vertex 3 Z-coordinate {m}
    9.700000000000,          !- Vertex 4 X-coordinate {m}
    -3.600000000000,         !- Vertex 4 Y-coordinate {m}
    11.400000000000;         !- Vertex 4 Z-coordinate {m}

BuildingSurface:Detailed,
    D8548A,                  !- Name
    Wall,                    !- Surface Type
    Exterior Wall South,     !- Construction Name
    APTO04_P4,               !- Zone Name
    Outdoors,                !- Outside Boundary Condition
    ,                        !- Outside Boundary Condition Object
    SunExposed,              !- Sun Exposure
    WindExposed,             !- Wind Exposure
    ,                        !- View Factor to Ground
    4,                       !- Number of Vertices
    9.700000000000,          !- Vertex 1 X-coordinate {m}
    -3.600000000000,         !- Vertex 1 Y-coordinate {m}
    11.400000000000,         !- Vertex 1 Z-coordinate {m}
    9.700000000000,          !- Vertex 2 X-coordinate {m}
    -3.600000000000,         !- Vertex 2 Y-coordinate {m}
    8.550000000000,          !- Vertex 2 Z-coordinate {m}
    11.350000000000,         !- Vertex 3 X-coordinate {m}
    -3.600000000000,         !- Vertex 3 Y-coordinate {m}
    8.550000000000,          !- Vertex 3 Z-coordinate {m}
    11.350000000000,         !- Vertex 4 X-coordinate {m}
    -3.600000000000,         !- Vertex 4 Y-coordinate {m}
    11.400000000000;         !- Vertex 4 Z-coordinate {m}

BuildingSurface:Detailed,
    40C688,                  !- Name
    Floor,                   !- Surface Type
    Interior Floor,          !- Construction Name
    APTO03_P5,               !- Zone Name
    Surface,                 !- Outside Boundary Condition
    A6C84C,                  !- Outside Boundary Condition Object
    NoSun,                   !- Sun Exposure
    NoWind,                  !- Wind Exposure
    0.0,                     !- View Factor to Ground
    8,                       !- Number of Vertices
    17.150000000000,         !- Vertex 1 X-coordinate {m}
    6.750000000000,          !- Vertex 1 Y-coordinate {m}
    11.400000000000,         !- Vertex 1 Z-coordinate {m}
    17.150000000000,         !- Vertex 2 X-coordinate {m}
    0.950000000000,          !- Vertex 2 Y-coordinate {m}
    11.400000000000,         !- Vertex 2 Z-coordinate {m}
    15.800000000000,         !- Vertex 3 X-coordinate {m}
    0.950000000000,          !- Vertex 3 Y-coordinate {m}
    11.400000000000,         !- Vertex 3 Z-coordinate {m}
    15.800000000000,         !- Vertex 4 X-coordinate {m}
    0.000000000000,          !- Vertex 4 Y-coordinate {m}
    11.400000000000,         !- Vertex 4 Z-coordinate {m}
    9.700000000000,          !- Vertex 5 X-coordinate {m}
    0.000000000000,          !- Vertex 5 Y-coordinate {m}
    11.400000000000,         !- Vertex 5 Z-coordinate {m}
    9.700000000000,          !- Vertex 6 X-coordinate {m}
    3.600000000000,          !- Vertex 6 Y-coordinate {m}
    11.400000000000,         !- Vertex 6 Z-coordinate {m}
    11.350000000000,         !- Vertex 7 X-coordinate {m}
    3.600000000000,          !- Vertex 7 Y-coordinate {m}
    11.400000000000,         !- Vertex 7 Z-coordinate {m}
    11.350000000000,         !- Vertex 8 X-coordinate {m}
    6.750000000000,          !- Vertex 8 Y-coordinate {m}
    11.400000000000;         !- Vertex 8 Z-coordinate {m}

BuildingSurface:Detailed,
    994234,                  !- Name
    Roof,                    !- Surface Type
    Exterior Roof,           !- Construction Name
    APTO03_P5,               !- Zone Name
    Outdoors,                !- Outside Boundary Condition
    ,                        !- Outside Boundary Condition Object
    SunExposed,              !- Sun Exposure
    WindExposed,             !- Wind Exposure
    0.0,                     !- View Factor to Ground
    8,                       !- Number of Vertices
    11.350000000000,         !- Vertex 1 X-coordinate {m}
    6.750000000000,          !- Vertex 1 Y-coordinate {m}
    14.250000000000,         !- Vertex 1 Z-coordinate {m}
    11.350000000000,         !- Vertex 2 X-coordinate {m}
    3.600000000000,          !- Vertex 2 Y-coordinate {m}
    14.250000000000,         !- Vertex 2 Z-coordinate {m}
    9.700000000000,          !- Vertex 3 X-coordinate {m}
    3.600000000000,          !- Vertex 3 Y-coordinate {m}
    14.250000000000,         !- Vertex 3 Z-coordinate {m}
    9.700000000000,          !- Vertex 4 X-coordinate {m}
    0.000000000000,          !- Vertex 4 Y-coordinate {m}
    14.250000000000,         !- Vertex 4 Z-coordinate {m}
    15.800000000000,         !- Vertex 5 X-coordinate {m}
    0.000000000000,          !- Vertex 5 Y-coordinate {m}
    14.250000000000,         !- Vertex 5 Z-coordinate {m}
    15.800000000000,         !- Vertex 6 X-coordinate {m}
    0.950000000000,          !- Vertex 6 Y-coordinate {m}
    14.250000000000,         !- Vertex 6 Z-coordinate {m}
    17.150000000000,         !- Vertex 7 X-coordinate {m}
    0.950000000000,          !- Vertex 7 Y-coordinate {m}
    14.250000000000,         !- Vertex 7 Z-coordinate {m}
    17.150000000000,         !- Vertex 8 X-coordinate {m}
    6.750000000000,          !- Vertex 8 Y-coordinate {m}
    14.250000000000;         !- Vertex 8 Z-coordinate {m}

BuildingSurface:Detailed,
    788A99,                  !- Name
    Wall,                    !- Surface Type
    Interior Wall,           !- Construction Name
    APTO03_P5,               !- Zone Name
    Surface,                 !- Outside Boundary Condition
    35F374,                  !- Outside Boundary Condition Object
    NoSun,                   !- Sun Exposure
    NoWind,                  !- Wind Exposure
    ,                        !- View Factor to Ground
    4,                       !- Number of Vertices
    9.700000000000,          !- Vertex 1 X-coordinate {m}
    3.600000000000,          !- Vertex 1 Y-coordinate {m}
    14.250000000000,         !- Vertex 1 Z-coordinate {m}
    9.700000000000,          !- Vertex 2 X-coordinate {m}
    3.600000000000,          !- Vertex 2 Y-coordinate {m}
    11.400000000000,         !- Vertex 2 Z-coordinate {m}
    9.700000000000,          !- Vertex 3 X-coordinate {m}
    0.000000000000,          !- Vertex 3 Y-coordinate {m}
    11.400000000000,         !- Vertex 3 Z-coordinate {m}
    9.700000000000,          !- Vertex 4 X-coordinate {m}
    0.000000000000,          !- Vertex 4 Y-coordinate {m}
    14.250000000000;         !- Vertex 4 Z-coordinate {m}

BuildingSurface:Detailed,
    DFDE75,                  !- Name
    Wall,                    !- Surface Type
    Exterior Wall North,     !- Construction Name
    APTO03_P5,               !- Zone Name
    Outdoors,                !- Outside Boundary Condition
    ,                        !- Outside Boundary Condition Object
    SunExposed,              !- Sun Exposure
    WindExposed,             !- Wind Exposure
    ,                        !- View Factor to Ground
    4,                       !- Number of Vertices
    11.350000000000,         !- Vertex 1 X-coordinate {m}
    3.600000000000,          !- Vertex 1 Y-coordinate {m}
    14.250000000000,         !- Vertex 1 Z-coordinate {m}
    11.350000000000,         !- Vertex 2 X-coordinate {m}
    3.600000000000,          !- Vertex 2 Y-coordinate {m}
    11.400000000000,         !- Vertex 2 Z-coordinate {m}
    9.700000000000,          !- Vertex 3 X-coordinate {m}
    3.600000000000,          !- Vertex 3 Y-coordinate {m}
    11.400000000000,         !- Vertex 3 Z-coordinate {m}
    9.700000000000,          !- Vertex 4 X-coordinate {m}
    3.600000000000,          !- Vertex 4 Y-coordinate {m}
    14.250000000000;         !- Vertex 4 Z-coordinate {m}

BuildingSurface:Detailed,
    AE97CF,                  !- Name
    Wall,                    !- Surface Type
    Exterior Wall West,      !- Construction Name
    APTO03_P5,               !- Zone Name
    Outdoors,                !- Outside Boundary Condition
    ,                        !- Outside Boundary Condition Object
    SunExposed,              !- Sun Exposure
    WindExposed,             !- Wind Exposure
    ,                        !- View Factor to Ground
    4,                       !- Number of Vertices
    11.350000000000,         !- Vertex 1 X-coordinate {m}
    6.750000000000,          !- Vertex 1 Y-coordinate {m}
    14.250000000000,         !- Vertex 1 Z-coordinate {m}
    11.350000000000,         !- Vertex 2 X-coordinate {m}
    6.750000000000,          !- Vertex 2 Y-coordinate {m}
    11.400000000000,         !- Vertex 2 Z-coordinate {m}
    11.350000000000,         !- Vertex 3 X-coordinate {m}
    3.600000000000,          !- Vertex 3 Y-coordinate {m}
    11.400000000000,         !- Vertex 3 Z-coordinate {m}
    11.350000000000,         !- Vertex 4 X-coordinate {m}
    3.600000000000,          !- Vertex 4 Y-coordinate {m}
    14.250000000000;         !- Vertex 4 Z-coordinate {m}

BuildingSurface:Detailed,
    5C8BDC,                  !- Name
    Wall,                    !- Surface Type
    Exterior Wall North,     !- Construction Name
    APTO03_P5,               !- Zone Name
    Outdoors,                !- Outside Boundary Condition
    ,                        !- Outside Boundary Condition Object
    SunExposed,              !- Sun Exposure
    WindExposed,             !- Wind Exposure
    ,                        !- View Factor to Ground
    4,                       !- Number of Vertices
    17.150000000000,         !- Vertex 1 X-coordinate {m}
    6.750000000000,          !- Vertex 1 Y-coordinate {m}
    14.250000000000,         !- Vertex 1 Z-coordinate {m}
    17.150000000000,         !- Vertex 2 X-coordinate {m}
    6.750000000000,          !- Vertex 2 Y-coordinate {m}
    11.400000000000,         !- Vertex 2 Z-coordinate {m}
    11.350000000000,         !- Vertex 3 X-coordinate {m}
    6.750000000000,          !- Vertex 3 Y-coordinate {m}
    11.400000000000,         !- Vertex 3 Z-coordinate {m}
    11.350000000000,         !- Vertex 4 X-coordinate {m}
    6.750000000000,          !- Vertex 4 Y-coordinate {m}
    14.250000000000;         !- Vertex 4 Z-coordinate {m}

BuildingSurface:Detailed,
    487BCC,                  !- Name
    Wall,                    !- Surface Type
    Exterior Wall East,      !- Construction Name
    APTO03_P5,               !- Zone Name
    Outdoors,                !- Outside Boundary Condition
    ,                        !- Outside Boundary Condition Object
    SunExposed,              !- Sun Exposure
    WindExposed,             !- Wind Exposure
    ,                        !- View Factor to Ground
    4,                       !- Number of Vertices
    17.150000000000,         !- Vertex 1 X-coordinate {m}
    0.950000000000,          !- Vertex 1 Y-coordinate {m}
    14.250000000000,         !- Vertex 1 Z-coordinate {m}
    17.150000000000,         !- Vertex 2 X-coordinate {m}
    0.950000000000,          !- Vertex 2 Y-coordinate {m}
    11.400000000000,         !- Vertex 2 Z-coordinate {m}
    17.150000000000,         !- Vertex 3 X-coordinate {m}
    6.750000000000,          !- Vertex 3 Y-coordinate {m}
    11.400000000000,         !- Vertex 3 Z-coordinate {m}
    17.150000000000,         !- Vertex 4 X-coordinate {m}
    6.750000000000,          !- Vertex 4 Y-coordinate {m}
    14.250000000000;         !- Vertex 4 Z-coordinate {m}

BuildingSurface:Detailed,
    BD89DC,                  !- Name
    Wall,                    !- Surface Type
    Exterior Wall South,     !- Construction Name
    APTO03_P5,               !- Zone Name
    Outdoors,                !- Outside Boundary Condition
    ,                        !- Outside Boundary Condition Object
    SunExposed,              !- Sun Exposure
    WindExposed,             !- Wind Exposure
    ,                        !- View Factor to Ground
    4,                       !- Number of Vertices
    15.800000000000,         !- Vertex 1 X-coordinate {m}
    0.950000000000,          !- Vertex 1 Y-coordinate {m}
    14.250000000000,         !- Vertex 1 Z-coordinate {m}
    15.800000000000,         !- Vertex 2 X-coordinate {m}
    0.950000000000,          !- Vertex 2 Y-coordinate {m}
    11.400000000000,         !- Vertex 2 Z-coordinate {m}
    17.150000000000,         !- Vertex 3 X-coordinate {m}
    0.950000000000,          !- Vertex 3 Y-coordinate {m}
    11.400000000000,         !- Vertex 3 Z-coordinate {m}
    17.150000000000,         !- Vertex 4 X-coordinate {m}
    0.950000000000,          !- Vertex 4 Y-coordinate {m}
    14.250000000000;         !- Vertex 4 Z-coordinate {m}

BuildingSurface:Detailed,
    940CAA,                  !- Name
    Wall,                    !- Surface Type
    Exterior Wall East,      !- Construction Name
    APTO03_P5,               !- Zone Name
    Outdoors,                !- Outside Boundary Condition
    ,                        !- Outside Boundary Condition Object
    SunExposed,              !- Sun Exposure
    WindExposed,             !- Wind Exposure
    ,                        !- View Factor to Ground
    4,                       !- Number of Vertices
    15.800000000000,         !- Vertex 1 X-coordinate {m}
    0.000000000000,          !- Vertex 1 Y-coordinate {m}
    14.250000000000,         !- Vertex 1 Z-coordinate {m}
    15.800000000000,         !- Vertex 2 X-coordinate {m}
    0.000000000000,          !- Vertex 2 Y-coordinate {m}
    11.400000000000,         !- Vertex 2 Z-coordinate {m}
    15.800000000000,         !- Vertex 3 X-coordinate {m}
    0.950000000000,          !- Vertex 3 Y-coordinate {m}
    11.400000000000,         !- Vertex 3 Z-coordinate {m}
    15.800000000000,         !- Vertex 4 X-coordinate {m}
    0.950000000000,          !- Vertex 4 Y-coordinate {m}
    14.250000000000;         !- Vertex 4 Z-coordinate {m}

BuildingSurface:Detailed,
    ED19EB,                  !- Name
    Wall,                    !- Surface Type
    Interior Wall,           !- Construction Name
    APTO03_P5,               !- Zone Name
    Surface,                 !- Outside Boundary Condition
    8D8625,                  !- Outside Boundary Condition Object
    NoSun,                   !- Sun Exposure
    NoWind,                  !- Wind Exposure
    ,                        !- View Factor to Ground
    4,                       !- Number of Vertices
    9.700000000000,          !- Vertex 1 X-coordinate {m}
    0.000000000000,          !- Vertex 1 Y-coordinate {m}
    14.250000000000,         !- Vertex 1 Z-coordinate {m}
    9.700000000000,          !- Vertex 2 X-coordinate {m}
    0.000000000000,          !- Vertex 2 Y-coordinate {m}
    11.400000000000,         !- Vertex 2 Z-coordinate {m}
    15.800000000000,         !- Vertex 3 X-coordinate {m}
    0.000000000000,          !- Vertex 3 Y-coordinate {m}
    11.400000000000,         !- Vertex 3 Z-coordinate {m}
    15.800000000000,         !- Vertex 4 X-coordinate {m}
    0.000000000000,          !- Vertex 4 Y-coordinate {m}
    14.250000000000;         !- Vertex 4 Z-coordinate {m}

BuildingSurface:Detailed,
    4508E7,                  !- Name
    Floor,                   !- Surface Type
    Interior Floor,          !- Construction Name
    APTO04_P5,               !- Zone Name
    Surface,                 !- Outside Boundary Condition
    AAE1CD,                  !- Outside Boundary Condition Object
    NoSun,                   !- Sun Exposure
    NoWind,                  !- Wind Exposure
    ,                        !- View Factor to Ground
    8,                       !- Number of Vertices
    15.800000000000,         !- Vertex 1 X-coordinate {m}
    0.000000000000,          !- Vertex 1 Y-coordinate {m}
    11.400000000000,         !- Vertex 1 Z-coordinate {m}
    15.800000000000,         !- Vertex 2 X-coordinate {m}
    -0.950000000000,         !- Vertex 2 Y-coordinate {m}
    11.400000000000,         !- Vertex 2 Z-coordinate {m}
    17.150000000000,         !- Vertex 3 X-coordinate {m}
    -0.950000000000,         !- Vertex 3 Y-coordinate {m}
    11.400000000000,         !- Vertex 3 Z-coordinate {m}
    17.150000000000,         !- Vertex 4 X-coordinate {m}
    -6.750000000000,         !- Vertex 4 Y-coordinate {m}
    11.400000000000,         !- Vertex 4 Z-coordinate {m}
    11.350000000000,         !- Vertex 5 X-coordinate {m}
    -6.750000000000,         !- Vertex 5 Y-coordinate {m}
    11.400000000000,         !- Vertex 5 Z-coordinate {m}
    11.350000000000,         !- Vertex 6 X-coordinate {m}
    -3.600000000000,         !- Vertex 6 Y-coordinate {m}
    11.400000000000,         !- Vertex 6 Z-coordinate {m}
    9.700000000000,          !- Vertex 7 X-coordinate {m}
    -3.600000000000,         !- Vertex 7 Y-coordinate {m}
    11.400000000000,         !- Vertex 7 Z-coordinate {m}
    9.700000000000,          !- Vertex 8 X-coordinate {m}
    0.000000000000,          !- Vertex 8 Y-coordinate {m}
    11.400000000000;         !- Vertex 8 Z-coordinate {m}

BuildingSurface:Detailed,
    3D22A1,                  !- Name
    Roof,                    !- Surface Type
    Exterior Roof,           !- Construction Name
    APTO04_P5,               !- Zone Name
    Outdoors,                !- Outside Boundary Condition
    ,                        !- Outside Boundary Condition Object
    SunExposed,              !- Sun Exposure
    WindExposed,             !- Wind Exposure
    ,                        !- View Factor to Ground
    8,                       !- Number of Vertices
    9.700000000000,          !- Vertex 1 X-coordinate {m}
    0.000000000000,          !- Vertex 1 Y-coordinate {m}
    14.250000000000,         !- Vertex 1 Z-coordinate {m}
    9.700000000000,          !- Vertex 2 X-coordinate {m}
    -3.600000000000,         !- Vertex 2 Y-coordinate {m}
    14.250000000000,         !- Vertex 2 Z-coordinate {m}
    11.350000000000,         !- Vertex 3 X-coordinate {m}
    -3.600000000000,         !- Vertex 3 Y-coordinate {m}
    14.250000000000,         !- Vertex 3 Z-coordinate {m}
    11.350000000000,         !- Vertex 4 X-coordinate {m}
    -6.750000000000,         !- Vertex 4 Y-coordinate {m}
    14.250000000000,         !- Vertex 4 Z-coordinate {m}
    17.150000000000,         !- Vertex 5 X-coordinate {m}
    -6.750000000000,         !- Vertex 5 Y-coordinate {m}
    14.250000000000,         !- Vertex 5 Z-coordinate {m}
    17.150000000000,         !- Vertex 6 X-coordinate {m}
    -0.950000000000,         !- Vertex 6 Y-coordinate {m}
    14.250000000000,         !- Vertex 6 Z-coordinate {m}
    15.800000000000,         !- Vertex 7 X-coordinate {m}
    -0.950000000000,         !- Vertex 7 Y-coordinate {m}
    14.250000000000,         !- Vertex 7 Z-coordinate {m}
    15.800000000000,         !- Vertex 8 X-coordinate {m}
    0.000000000000,          !- Vertex 8 Y-coordinate {m}
    14.250000000000;         !- Vertex 8 Z-coordinate {m}

BuildingSurface:Detailed,
    8D8625,                  !- Name
    Wall,                    !- Surface Type
    Interior Wall,           !- Construction Name
    APTO04_P5,               !- Zone Name
    Surface,                 !- Outside Boundary Condition
    ED19EB,                  !- Outside Boundary Condition Object
    NoSun,                   !- Sun Exposure
    NoWind,                  !- Wind Exposure
    ,                        !- View Factor to Ground
    4,                       !- Number of Vertices
    15.800000000000,         !- Vertex 1 X-coordinate {m}
    0.000000000000,          !- Vertex 1 Y-coordinate {m}
    14.250000000000,         !- Vertex 1 Z-coordinate {m}
    15.800000000000,         !- Vertex 2 X-coordinate {m}
    0.000000000000,          !- Vertex 2 Y-coordinate {m}
    11.400000000000,         !- Vertex 2 Z-coordinate {m}
    9.700000000000,          !- Vertex 3 X-coordinate {m}
    0.000000000000,          !- Vertex 3 Y-coordinate {m}
    11.400000000000,         !- Vertex 3 Z-coordinate {m}
    9.700000000000,          !- Vertex 4 X-coordinate {m}
    0.000000000000,          !- Vertex 4 Y-coordinate {m}
    14.250000000000;         !- Vertex 4 Z-coordinate {m}

BuildingSurface:Detailed,
    64499A,                  !- Name
    Wall,                    !- Surface Type
    Exterior Wall East,      !- Construction Name
    APTO04_P5,               !- Zone Name
    Outdoors,                !- Outside Boundary Condition
    ,                        !- Outside Boundary Condition Object
    SunExposed,              !- Sun Exposure
    WindExposed,             !- Wind Exposure
    ,                        !- View Factor to Ground
    4,                       !- Number of Vertices
    15.800000000000,         !- Vertex 1 X-coordinate {m}
    -0.950000000000,         !- Vertex 1 Y-coordinate {m}
    14.250000000000,         !- Vertex 1 Z-coordinate {m}
    15.800000000000,         !- Vertex 2 X-coordinate {m}
    -0.950000000000,         !- Vertex 2 Y-coordinate {m}
    11.400000000000,         !- Vertex 2 Z-coordinate {m}
    15.800000000000,         !- Vertex 3 X-coordinate {m}
    0.000000000000,          !- Vertex 3 Y-coordinate {m}
    11.400000000000,         !- Vertex 3 Z-coordinate {m}
    15.800000000000,         !- Vertex 4 X-coordinate {m}
    0.000000000000,          !- Vertex 4 Y-coordinate {m}
    14.250000000000;         !- Vertex 4 Z-coordinate {m}

BuildingSurface:Detailed,
    D21546,                  !- Name
    Wall,                    !- Surface Type
    Exterior Wall North,     !- Construction Name
    APTO04_P5,               !- Zone Name
    Outdoors,                !- Outside Boundary Condition
    ,                        !- Outside Boundary Condition Object
    SunExposed,              !- Sun Exposure
    WindExposed,             !- Wind Exposure
    ,                        !- View Factor to Ground
    4,                       !- Number of Vertices
    17.150000000000,         !- Vertex 1 X-coordinate {m}
    -0.950000000000,         !- Vertex 1 Y-coordinate {m}
    14.250000000000,         !- Vertex 1 Z-coordinate {m}
    17.150000000000,         !- Vertex 2 X-coordinate {m}
    -0.950000000000,         !- Vertex 2 Y-coordinate {m}
    11.400000000000,         !- Vertex 2 Z-coordinate {m}
    15.800000000000,         !- Vertex 3 X-coordinate {m}
    -0.950000000000,         !- Vertex 3 Y-coordinate {m}
    11.400000000000,         !- Vertex 3 Z-coordinate {m}
    15.800000000000,         !- Vertex 4 X-coordinate {m}
    -0.950000000000,         !- Vertex 4 Y-coordinate {m}
    14.250000000000;         !- Vertex 4 Z-coordinate {m}

BuildingSurface:Detailed,
    527657,                  !- Name
    Wall,                    !- Surface Type
    Exterior Wall East,      !- Construction Name
    APTO04_P5,               !- Zone Name
    Outdoors,                !- Outside Boundary Condition
    ,                        !- Outside Boundary Condition Object
    SunExposed,              !- Sun Exposure
    WindExposed,             !- Wind Exposure
    ,                        !- View Factor to Ground
    4,                       !- Number of Vertices
    17.150000000000,         !- Vertex 1 X-coordinate {m}
    -6.750000000000,         !- Vertex 1 Y-coordinate {m}
    14.250000000000,         !- Vertex 1 Z-coordinate {m}
    17.150000000000,         !- Vertex 2 X-coordinate {m}
    -6.750000000000,         !- Vertex 2 Y-coordinate {m}
    11.400000000000,         !- Vertex 2 Z-coordinate {m}
    17.150000000000,         !- Vertex 3 X-coordinate {m}
    -0.950000000000,         !- Vertex 3 Y-coordinate {m}
    11.400000000000,         !- Vertex 3 Z-coordinate {m}
    17.150000000000,         !- Vertex 4 X-coordinate {m}
    -0.950000000000,         !- Vertex 4 Y-coordinate {m}
    14.250000000000;         !- Vertex 4 Z-coordinate {m}

BuildingSurface:Detailed,
    A94D49,                  !- Name
    Wall,                    !- Surface Type
    Exterior Wall South,     !- Construction Name
    APTO04_P5,               !- Zone Name
    Outdoors,                !- Outside Boundary Condition
    ,                        !- Outside Boundary Condition Object
    SunExposed,              !- Sun Exposure
    WindExposed,             !- Wind Exposure
    ,                        !- View Factor to Ground
    4,                       !- Number of Vertices
    11.350000000000,         !- Vertex 1 X-coordinate {m}
    -6.750000000000,         !- Vertex 1 Y-coordinate {m}
    14.250000000000,         !- Vertex 1 Z-coordinate {m}
    11.350000000000,         !- Vertex 2 X-coordinate {m}
    -6.750000000000,         !- Vertex 2 Y-coordinate {m}
    11.400000000000,         !- Vertex 2 Z-coordinate {m}
    17.150000000000,         !- Vertex 3 X-coordinate {m}
    -6.750000000000,         !- Vertex 3 Y-coordinate {m}
    11.400000000000,         !- Vertex 3 Z-coordinate {m}
    17.150000000000,         !- Vertex 4 X-coordinate {m}
    -6.750000000000,         !- Vertex 4 Y-coordinate {m}
    14.250000000000;         !- Vertex 4 Z-coordinate {m}

BuildingSurface:Detailed,
    D4B4D5,                  !- Name
    Wall,                    !- Surface Type
    Exterior Wall West,      !- Construction Name
    APTO04_P5,               !- Zone Name
    Outdoors,                !- Outside Boundary Condition
    ,                        !- Outside Boundary Condition Object
    SunExposed,              !- Sun Exposure
    WindExposed,             !- Wind Exposure
    ,                        !- View Factor to Ground
    4,                       !- Number of Vertices
    11.350000000000,         !- Vertex 1 X-coordinate {m}
    -3.600000000000,         !- Vertex 1 Y-coordinate {m}
    14.250000000000,         !- Vertex 1 Z-coordinate {m}
    11.350000000000,         !- Vertex 2 X-coordinate {m}
    -3.600000000000,         !- Vertex 2 Y-coordinate {m}
    11.400000000000,         !- Vertex 2 Z-coordinate {m}
    11.350000000000,         !- Vertex 3 X-coordinate {m}
    -6.750000000000,         !- Vertex 3 Y-coordinate {m}
    11.400000000000,         !- Vertex 3 Z-coordinate {m}
    11.350000000000,         !- Vertex 4 X-coordinate {m}
    -6.750000000000,         !- Vertex 4 Y-coordinate {m}
    14.250000000000;         !- Vertex 4 Z-coordinate {m}

BuildingSurface:Detailed,
    B0807E,                  !- Name
    Wall,                    !- Surface Type
    Interior Wall,           !- Construction Name
    APTO04_P5,               !- Zone Name
    Surface,                 !- Outside Boundary Condition
    548C7F,                  !- Outside Boundary Condition Object
    NoSun,                   !- Sun Exposure
    NoWind,                  !- Wind Exposure
    ,                        !- View Factor to Ground
    4,                       !- Number of Vertices
    9.700000000000,          !- Vertex 1 X-coordinate {m}
    0.000000000000,          !- Vertex 1 Y-coordinate {m}
    14.250000000000,         !- Vertex 1 Z-coordinate {m}
    9.700000000000,          !- Vertex 2 X-coordinate {m}
    0.000000000000,          !- Vertex 2 Y-coordinate {m}
    11.400000000000,         !- Vertex 2 Z-coordinate {m}
    9.700000000000,          !- Vertex 3 X-coordinate {m}
    -3.600000000000,         !- Vertex 3 Y-coordinate {m}
    11.400000000000,         !- Vertex 3 Z-coordinate {m}
    9.700000000000,          !- Vertex 4 X-coordinate {m}
    -3.600000000000,         !- Vertex 4 Y-coordinate {m}
    14.250000000000;         !- Vertex 4 Z-coordinate {m}

BuildingSurface:Detailed,
    3B69AA,                  !- Name
    Wall,                    !- Surface Type
    Exterior Wall South,     !- Construction Name
    APTO04_P5,               !- Zone Name
    Outdoors,                !- Outside Boundary Condition
    ,                        !- Outside Boundary Condition Object
    SunExposed,              !- Sun Exposure
    WindExposed,             !- Wind Exposure
    ,                        !- View Factor to Ground
    4,                       !- Number of Vertices
    9.700000000000,          !- Vertex 1 X-coordinate {m}
    -3.600000000000,         !- Vertex 1 Y-coordinate {m}
    14.250000000000,         !- Vertex 1 Z-coordinate {m}
    9.700000000000,          !- Vertex 2 X-coordinate {m}
    -3.600000000000,         !- Vertex 2 Y-coordinate {m}
    11.400000000000,         !- Vertex 2 Z-coordinate {m}
    11.350000000000,         !- Vertex 3 X-coordinate {m}
    -3.600000000000,         !- Vertex 3 Y-coordinate {m}
    11.400000000000,         !- Vertex 3 Z-coordinate {m}
    11.350000000000,         !- Vertex 4 X-coordinate {m}
    -3.600000000000,         !- Vertex 4 Y-coordinate {m}
    14.250000000000;         !- Vertex 4 Z-coordinate {m}

BuildingSurface:Detailed,
    5AF199,                  !- Name
    Floor,                   !- Surface Type
    Interior Floor,          !- Construction Name
    APTO01_P5,               !- Zone Name
    Surface,                 !- Outside Boundary Condition
    B01E54,                  !- Outside Boundary Condition Object
    NoSun,                   !- Sun Exposure
    NoWind,                  !- Wind Exposure
    ,                        !- View Factor to Ground
    8,                       !- Number of Vertices
    7.450000000000,          !- Vertex 1 X-coordinate {m}
    0.000000000000,          !- Vertex 1 Y-coordinate {m}
    11.400000000000,         !- Vertex 1 Z-coordinate {m}
    7.450000000000,          !- Vertex 2 X-coordinate {m}
    -3.600000000000,         !- Vertex 2 Y-coordinate {m}
    11.400000000000,         !- Vertex 2 Z-coordinate {m}
    5.800000000000,          !- Vertex 3 X-coordinate {m}
    -3.600000000000,         !- Vertex 3 Y-coordinate {m}
    11.400000000000,         !- Vertex 3 Z-coordinate {m}
    5.800000000000,          !- Vertex 4 X-coordinate {m}
    -6.750000000000,         !- Vertex 4 Y-coordinate {m}
    11.400000000000,         !- Vertex 4 Z-coordinate {m}
    0.000000000000,          !- Vertex 5 X-coordinate {m}
    -6.750000000000,         !- Vertex 5 Y-coordinate {m}
    11.400000000000,         !- Vertex 5 Z-coordinate {m}
    0.000000000000,          !- Vertex 6 X-coordinate {m}
    -0.950000000000,         !- Vertex 6 Y-coordinate {m}
    11.400000000000,         !- Vertex 6 Z-coordinate {m}
    1.350000000000,          !- Vertex 7 X-coordinate {m}
    -0.950000000000,         !- Vertex 7 Y-coordinate {m}
    11.400000000000,         !- Vertex 7 Z-coordinate {m}
    1.350000000000,          !- Vertex 8 X-coordinate {m}
    0.000000000000,          !- Vertex 8 Y-coordinate {m}
    11.400000000000;         !- Vertex 8 Z-coordinate {m}

BuildingSurface:Detailed,
    A5B95F,                  !- Name
    Wall,                    !- Surface Type
    Interior Wall,           !- Construction Name
    APTO01_P5,               !- Zone Name
    Surface,                 !- Outside Boundary Condition
    F6B404,                  !- Outside Boundary Condition Object
    NoSun,                   !- Sun Exposure
    NoWind,                  !- Wind Exposure
    ,                        !- View Factor to Ground
    4,                       !- Number of Vertices
    7.450000000000,          !- Vertex 1 X-coordinate {m}
    0.000000000000,          !- Vertex 1 Y-coordinate {m}
    14.250000000000,         !- Vertex 1 Z-coordinate {m}
    7.450000000000,          !- Vertex 2 X-coordinate {m}
    0.000000000000,          !- Vertex 2 Y-coordinate {m}
    11.400000000000,         !- Vertex 2 Z-coordinate {m}
    1.350000000000,          !- Vertex 3 X-coordinate {m}
    0.000000000000,          !- Vertex 3 Y-coordinate {m}
    11.400000000000,         !- Vertex 3 Z-coordinate {m}
    1.350000000000,          !- Vertex 4 X-coordinate {m}
    0.000000000000,          !- Vertex 4 Y-coordinate {m}
    14.250000000000;         !- Vertex 4 Z-coordinate {m}

BuildingSurface:Detailed,
    38F241,                  !- Name
    Wall,                    !- Surface Type
    Exterior Wall West,      !- Construction Name
    APTO01_P5,               !- Zone Name
    Outdoors,                !- Outside Boundary Condition
    ,                        !- Outside Boundary Condition Object
    SunExposed,              !- Sun Exposure
    WindExposed,             !- Wind Exposure
    ,                        !- View Factor to Ground
    4,                       !- Number of Vertices
    1.350000000000,          !- Vertex 1 X-coordinate {m}
    0.000000000000,          !- Vertex 1 Y-coordinate {m}
    14.250000000000,         !- Vertex 1 Z-coordinate {m}
    1.350000000000,          !- Vertex 2 X-coordinate {m}
    0.000000000000,          !- Vertex 2 Y-coordinate {m}
    11.400000000000,         !- Vertex 2 Z-coordinate {m}
    1.350000000000,          !- Vertex 3 X-coordinate {m}
    -0.950000000000,         !- Vertex 3 Y-coordinate {m}
    11.400000000000,         !- Vertex 3 Z-coordinate {m}
    1.350000000000,          !- Vertex 4 X-coordinate {m}
    -0.950000000000,         !- Vertex 4 Y-coordinate {m}
    14.250000000000;         !- Vertex 4 Z-coordinate {m}

BuildingSurface:Detailed,
    DD4231,                  !- Name
    Wall,                    !- Surface Type
    Exterior Wall West,      !- Construction Name
    APTO01_P5,               !- Zone Name
    Outdoors,                !- Outside Boundary Condition
    ,                        !- Outside Boundary Condition Object
    SunExposed,              !- Sun Exposure
    WindExposed,             !- Wind Exposure
    ,                        !- View Factor to Ground
    4,                       !- Number of Vertices
    0.000000000000,          !- Vertex 1 X-coordinate {m}
    -0.950000000000,         !- Vertex 1 Y-coordinate {m}
    14.250000000000,         !- Vertex 1 Z-coordinate {m}
    0.000000000000,          !- Vertex 2 X-coordinate {m}
    -0.950000000000,         !- Vertex 2 Y-coordinate {m}
    11.400000000000,         !- Vertex 2 Z-coordinate {m}
    0.000000000000,          !- Vertex 3 X-coordinate {m}
    -6.750000000000,         !- Vertex 3 Y-coordinate {m}
    11.400000000000,         !- Vertex 3 Z-coordinate {m}
    0.000000000000,          !- Vertex 4 X-coordinate {m}
    -6.750000000000,         !- Vertex 4 Y-coordinate {m}
    14.250000000000;         !- Vertex 4 Z-coordinate {m}

BuildingSurface:Detailed,
    FBBC3B,                  !- Name
    Roof,                    !- Surface Type
    Exterior Roof,           !- Construction Name
    APTO01_P5,               !- Zone Name
    Outdoors,                !- Outside Boundary Condition
    ,                        !- Outside Boundary Condition Object
    SunExposed,              !- Sun Exposure
    WindExposed,             !- Wind Exposure
    ,                        !- View Factor to Ground
    8,                       !- Number of Vertices
    0.000000000000,          !- Vertex 1 X-coordinate {m}
    -0.950000000000,         !- Vertex 1 Y-coordinate {m}
    14.250000000000,         !- Vertex 1 Z-coordinate {m}
    0.000000000000,          !- Vertex 2 X-coordinate {m}
    -6.750000000000,         !- Vertex 2 Y-coordinate {m}
    14.250000000000,         !- Vertex 2 Z-coordinate {m}
    5.800000000000,          !- Vertex 3 X-coordinate {m}
    -6.750000000000,         !- Vertex 3 Y-coordinate {m}
    14.250000000000,         !- Vertex 3 Z-coordinate {m}
    5.800000000000,          !- Vertex 4 X-coordinate {m}
    -3.600000000000,         !- Vertex 4 Y-coordinate {m}
    14.250000000000,         !- Vertex 4 Z-coordinate {m}
    7.450000000000,          !- Vertex 5 X-coordinate {m}
    -3.600000000000,         !- Vertex 5 Y-coordinate {m}
    14.250000000000,         !- Vertex 5 Z-coordinate {m}
    7.450000000000,          !- Vertex 6 X-coordinate {m}
    0.000000000000,          !- Vertex 6 Y-coordinate {m}
    14.250000000000,         !- Vertex 6 Z-coordinate {m}
    1.350000000000,          !- Vertex 7 X-coordinate {m}
    0.000000000000,          !- Vertex 7 Y-coordinate {m}
    14.250000000000,         !- Vertex 7 Z-coordinate {m}
    1.350000000000,          !- Vertex 8 X-coordinate {m}
    -0.950000000000,         !- Vertex 8 Y-coordinate {m}
    14.250000000000;         !- Vertex 8 Z-coordinate {m}

BuildingSurface:Detailed,
    128173,                  !- Name
    Wall,                    !- Surface Type
    Exterior Wall North,     !- Construction Name
    APTO01_P5,               !- Zone Name
    Outdoors,                !- Outside Boundary Condition
    ,                        !- Outside Boundary Condition Object
    SunExposed,              !- Sun Exposure
    WindExposed,             !- Wind Exposure
    ,                        !- View Factor to Ground
    4,                       !- Number of Vertices
    1.350000000000,          !- Vertex 1 X-coordinate {m}
    -0.950000000000,         !- Vertex 1 Y-coordinate {m}
    14.250000000000,         !- Vertex 1 Z-coordinate {m}
    1.350000000000,          !- Vertex 2 X-coordinate {m}
    -0.950000000000,         !- Vertex 2 Y-coordinate {m}
    11.400000000000,         !- Vertex 2 Z-coordinate {m}
    0.000000000000,          !- Vertex 3 X-coordinate {m}
    -0.950000000000,         !- Vertex 3 Y-coordinate {m}
    11.400000000000,         !- Vertex 3 Z-coordinate {m}
    0.000000000000,          !- Vertex 4 X-coordinate {m}
    -0.950000000000,         !- Vertex 4 Y-coordinate {m}
    14.250000000000;         !- Vertex 4 Z-coordinate {m}

BuildingSurface:Detailed,
    EE55FD,                  !- Name
    Wall,                    !- Surface Type
    Interior Wall,           !- Construction Name
    APTO01_P5,               !- Zone Name
    Surface,                 !- Outside Boundary Condition
    627CF6,                  !- Outside Boundary Condition Object
    NoSun,                   !- Sun Exposure
    NoWind,                  !- Wind Exposure
    ,                        !- View Factor to Ground
    4,                       !- Number of Vertices
    7.450000000000,          !- Vertex 1 X-coordinate {m}
    -3.600000000000,         !- Vertex 1 Y-coordinate {m}
    14.250000000000,         !- Vertex 1 Z-coordinate {m}
    7.450000000000,          !- Vertex 2 X-coordinate {m}
    -3.600000000000,         !- Vertex 2 Y-coordinate {m}
    11.400000000000,         !- Vertex 2 Z-coordinate {m}
    7.450000000000,          !- Vertex 3 X-coordinate {m}
    0.000000000000,          !- Vertex 3 Y-coordinate {m}
    11.400000000000,         !- Vertex 3 Z-coordinate {m}
    7.450000000000,          !- Vertex 4 X-coordinate {m}
    0.000000000000,          !- Vertex 4 Y-coordinate {m}
    14.250000000000;         !- Vertex 4 Z-coordinate {m}

BuildingSurface:Detailed,
    C5678D,                  !- Name
    Wall,                    !- Surface Type
    Exterior Wall East,      !- Construction Name
    APTO01_P5,               !- Zone Name
    Outdoors,                !- Outside Boundary Condition
    ,                        !- Outside Boundary Condition Object
    SunExposed,              !- Sun Exposure
    WindExposed,             !- Wind Exposure
    ,                        !- View Factor to Ground
    4,                       !- Number of Vertices
    5.800000000000,          !- Vertex 1 X-coordinate {m}
    -6.750000000000,         !- Vertex 1 Y-coordinate {m}
    14.250000000000,         !- Vertex 1 Z-coordinate {m}
    5.800000000000,          !- Vertex 2 X-coordinate {m}
    -6.750000000000,         !- Vertex 2 Y-coordinate {m}
    11.400000000000,         !- Vertex 2 Z-coordinate {m}
    5.800000000000,          !- Vertex 3 X-coordinate {m}
    -3.600000000000,         !- Vertex 3 Y-coordinate {m}
    11.400000000000,         !- Vertex 3 Z-coordinate {m}
    5.800000000000,          !- Vertex 4 X-coordinate {m}
    -3.600000000000,         !- Vertex 4 Y-coordinate {m}
    14.250000000000;         !- Vertex 4 Z-coordinate {m}

BuildingSurface:Detailed,
    B205A5,                  !- Name
    Wall,                    !- Surface Type
    Exterior Wall South,     !- Construction Name
    APTO01_P5,               !- Zone Name
    Outdoors,                !- Outside Boundary Condition
    ,                        !- Outside Boundary Condition Object
    SunExposed,              !- Sun Exposure
    WindExposed,             !- Wind Exposure
    ,                        !- View Factor to Ground
    4,                       !- Number of Vertices
    5.800000000000,          !- Vertex 1 X-coordinate {m}
    -3.600000000000,         !- Vertex 1 Y-coordinate {m}
    14.250000000000,         !- Vertex 1 Z-coordinate {m}
    5.800000000000,          !- Vertex 2 X-coordinate {m}
    -3.600000000000,         !- Vertex 2 Y-coordinate {m}
    11.400000000000,         !- Vertex 2 Z-coordinate {m}
    7.450000000000,          !- Vertex 3 X-coordinate {m}
    -3.600000000000,         !- Vertex 3 Y-coordinate {m}
    11.400000000000,         !- Vertex 3 Z-coordinate {m}
    7.450000000000,          !- Vertex 4 X-coordinate {m}
    -3.600000000000,         !- Vertex 4 Y-coordinate {m}
    14.250000000000;         !- Vertex 4 Z-coordinate {m}

BuildingSurface:Detailed,
    71ADB3,                  !- Name
    Wall,                    !- Surface Type
    Exterior Wall South,     !- Construction Name
    APTO01_P5,               !- Zone Name
    Outdoors,                !- Outside Boundary Condition
    ,                        !- Outside Boundary Condition Object
    SunExposed,              !- Sun Exposure
    WindExposed,             !- Wind Exposure
    ,                        !- View Factor to Ground
    4,                       !- Number of Vertices
    0.000000000000,          !- Vertex 1 X-coordinate {m}
    -6.750000000000,         !- Vertex 1 Y-coordinate {m}
    14.250000000000,         !- Vertex 1 Z-coordinate {m}
    0.000000000000,          !- Vertex 2 X-coordinate {m}
    -6.750000000000,         !- Vertex 2 Y-coordinate {m}
    11.400000000000,         !- Vertex 2 Z-coordinate {m}
    5.800000000000,          !- Vertex 3 X-coordinate {m}
    -6.750000000000,         !- Vertex 3 Y-coordinate {m}
    11.400000000000,         !- Vertex 3 Z-coordinate {m}
    5.800000000000,          !- Vertex 4 X-coordinate {m}
    -6.750000000000,         !- Vertex 4 Y-coordinate {m}
    14.250000000000;         !- Vertex 4 Z-coordinate {m}

BuildingSurface:Detailed,
    E17F35,                  !- Name
    Wall,                    !- Surface Type
    Exterior Wall West,      !- Construction Name
    APTO02_P5,               !- Zone Name
    Outdoors,                !- Outside Boundary Condition
    ,                        !- Outside Boundary Condition Object
    SunExposed,              !- Sun Exposure
    WindExposed,             !- Wind Exposure
    ,                        !- View Factor to Ground
    4,                       !- Number of Vertices
    0.000000000000,          !- Vertex 1 X-coordinate {m}
    6.750000000000,          !- Vertex 1 Y-coordinate {m}
    14.250000000000,         !- Vertex 1 Z-coordinate {m}
    0.000000000000,          !- Vertex 2 X-coordinate {m}
    6.750000000000,          !- Vertex 2 Y-coordinate {m}
    11.400000000000,         !- Vertex 2 Z-coordinate {m}
    0.000000000000,          !- Vertex 3 X-coordinate {m}
    0.950000000000,          !- Vertex 3 Y-coordinate {m}
    11.400000000000,         !- Vertex 3 Z-coordinate {m}
    0.000000000000,          !- Vertex 4 X-coordinate {m}
    0.950000000000,          !- Vertex 4 Y-coordinate {m}
    14.250000000000;         !- Vertex 4 Z-coordinate {m}

BuildingSurface:Detailed,
    9A866E,                  !- Name
    Wall,                    !- Surface Type
    Exterior Wall South,     !- Construction Name
    APTO02_P5,               !- Zone Name
    Outdoors,                !- Outside Boundary Condition
    ,                        !- Outside Boundary Condition Object
    SunExposed,              !- Sun Exposure
    WindExposed,             !- Wind Exposure
    ,                        !- View Factor to Ground
    4,                       !- Number of Vertices
    0.000000000000,          !- Vertex 1 X-coordinate {m}
    0.950000000000,          !- Vertex 1 Y-coordinate {m}
    14.250000000000,         !- Vertex 1 Z-coordinate {m}
    0.000000000000,          !- Vertex 2 X-coordinate {m}
    0.950000000000,          !- Vertex 2 Y-coordinate {m}
    11.400000000000,         !- Vertex 2 Z-coordinate {m}
    1.350000000000,          !- Vertex 3 X-coordinate {m}
    0.950000000000,          !- Vertex 3 Y-coordinate {m}
    11.400000000000,         !- Vertex 3 Z-coordinate {m}
    1.350000000000,          !- Vertex 4 X-coordinate {m}
    0.950000000000,          !- Vertex 4 Y-coordinate {m}
    14.250000000000;         !- Vertex 4 Z-coordinate {m}

BuildingSurface:Detailed,
    15C2BC,                  !- Name
    Wall,                    !- Surface Type
    Interior Wall,           !- Construction Name
    APTO02_P5,               !- Zone Name
    Surface,                 !- Outside Boundary Condition
    2F4343,                  !- Outside Boundary Condition Object
    NoSun,                   !- Sun Exposure
    NoWind,                  !- Wind Exposure
    ,                        !- View Factor to Ground
    4,                       !- Number of Vertices
    7.450000000000,          !- Vertex 1 X-coordinate {m}
    0.000000000000,          !- Vertex 1 Y-coordinate {m}
    14.250000000000,         !- Vertex 1 Z-coordinate {m}
    7.450000000000,          !- Vertex 2 X-coordinate {m}
    0.000000000000,          !- Vertex 2 Y-coordinate {m}
    11.400000000000,         !- Vertex 2 Z-coordinate {m}
    7.450000000000,          !- Vertex 3 X-coordinate {m}
    3.600000000000,          !- Vertex 3 Y-coordinate {m}
    11.400000000000,         !- Vertex 3 Z-coordinate {m}
    7.450000000000,          !- Vertex 4 X-coordinate {m}
    3.600000000000,          !- Vertex 4 Y-coordinate {m}
    14.250000000000;         !- Vertex 4 Z-coordinate {m}

BuildingSurface:Detailed,
    F6586E,                  !- Name
    Wall,                    !- Surface Type
    Exterior Wall East,      !- Construction Name
    APTO02_P5,               !- Zone Name
    Outdoors,                !- Outside Boundary Condition
    ,                        !- Outside Boundary Condition Object
    SunExposed,              !- Sun Exposure
    WindExposed,             !- Wind Exposure
    ,                        !- View Factor to Ground
    4,                       !- Number of Vertices
    5.800000000000,          !- Vertex 1 X-coordinate {m}
    3.600000000000,          !- Vertex 1 Y-coordinate {m}
    14.250000000000,         !- Vertex 1 Z-coordinate {m}
    5.800000000000,          !- Vertex 2 X-coordinate {m}
    3.600000000000,          !- Vertex 2 Y-coordinate {m}
    11.400000000000,         !- Vertex 2 Z-coordinate {m}
    5.800000000000,          !- Vertex 3 X-coordinate {m}
    6.750000000000,          !- Vertex 3 Y-coordinate {m}
    11.400000000000,         !- Vertex 3 Z-coordinate {m}
    5.800000000000,          !- Vertex 4 X-coordinate {m}
    6.750000000000,          !- Vertex 4 Y-coordinate {m}
    14.250000000000;         !- Vertex 4 Z-coordinate {m}

BuildingSurface:Detailed,
    83B25B,                  !- Name
    Wall,                    !- Surface Type
    Exterior Wall North,     !- Construction Name
    APTO02_P5,               !- Zone Name
    Outdoors,                !- Outside Boundary Condition
    ,                        !- Outside Boundary Condition Object
    SunExposed,              !- Sun Exposure
    WindExposed,             !- Wind Exposure
    ,                        !- View Factor to Ground
    4,                       !- Number of Vertices
    7.450000000000,          !- Vertex 1 X-coordinate {m}
    3.600000000000,          !- Vertex 1 Y-coordinate {m}
    14.250000000000,         !- Vertex 1 Z-coordinate {m}
    7.450000000000,          !- Vertex 2 X-coordinate {m}
    3.600000000000,          !- Vertex 2 Y-coordinate {m}
    11.400000000000,         !- Vertex 2 Z-coordinate {m}
    5.800000000000,          !- Vertex 3 X-coordinate {m}
    3.600000000000,          !- Vertex 3 Y-coordinate {m}
    11.400000000000,         !- Vertex 3 Z-coordinate {m}
    5.800000000000,          !- Vertex 4 X-coordinate {m}
    3.600000000000,          !- Vertex 4 Y-coordinate {m}
    14.250000000000;         !- Vertex 4 Z-coordinate {m}

BuildingSurface:Detailed,
    C08EA6,                  !- Name
    Wall,                    !- Surface Type
    Exterior Wall West,      !- Construction Name
    APTO02_P5,               !- Zone Name
    Outdoors,                !- Outside Boundary Condition
    ,                        !- Outside Boundary Condition Object
    SunExposed,              !- Sun Exposure
    WindExposed,             !- Wind Exposure
    ,                        !- View Factor to Ground
    4,                       !- Number of Vertices
    1.350000000000,          !- Vertex 1 X-coordinate {m}
    0.950000000000,          !- Vertex 1 Y-coordinate {m}
    14.250000000000,         !- Vertex 1 Z-coordinate {m}
    1.350000000000,          !- Vertex 2 X-coordinate {m}
    0.950000000000,          !- Vertex 2 Y-coordinate {m}
    11.400000000000,         !- Vertex 2 Z-coordinate {m}
    1.350000000000,          !- Vertex 3 X-coordinate {m}
    0.000000000000,          !- Vertex 3 Y-coordinate {m}
    11.400000000000,         !- Vertex 3 Z-coordinate {m}
    1.350000000000,          !- Vertex 4 X-coordinate {m}
    0.000000000000,          !- Vertex 4 Y-coordinate {m}
    14.250000000000;         !- Vertex 4 Z-coordinate {m}

BuildingSurface:Detailed,
    9C5AAE,                  !- Name
    Wall,                    !- Surface Type
    Exterior Wall North,     !- Construction Name
    APTO02_P5,               !- Zone Name
    Outdoors,                !- Outside Boundary Condition
    ,                        !- Outside Boundary Condition Object
    SunExposed,              !- Sun Exposure
    WindExposed,             !- Wind Exposure
    ,                        !- View Factor to Ground
    4,                       !- Number of Vertices
    5.800000000000,          !- Vertex 1 X-coordinate {m}
    6.750000000000,          !- Vertex 1 Y-coordinate {m}
    14.250000000000,         !- Vertex 1 Z-coordinate {m}
    5.800000000000,          !- Vertex 2 X-coordinate {m}
    6.750000000000,          !- Vertex 2 Y-coordinate {m}
    11.400000000000,         !- Vertex 2 Z-coordinate {m}
    0.000000000000,          !- Vertex 3 X-coordinate {m}
    6.750000000000,          !- Vertex 3 Y-coordinate {m}
    11.400000000000,         !- Vertex 3 Z-coordinate {m}
    0.000000000000,          !- Vertex 4 X-coordinate {m}
    6.750000000000,          !- Vertex 4 Y-coordinate {m}
    14.250000000000;         !- Vertex 4 Z-coordinate {m}

BuildingSurface:Detailed,
    F6B404,                  !- Name
    Wall,                    !- Surface Type
    Interior Wall,           !- Construction Name
    APTO02_P5,               !- Zone Name
    Surface,                 !- Outside Boundary Condition
    A5B95F,                  !- Outside Boundary Condition Object
    NoSun,                   !- Sun Exposure
    NoWind,                  !- Wind Exposure
    ,                        !- View Factor to Ground
    4,                       !- Number of Vertices
    1.350000000000,          !- Vertex 1 X-coordinate {m}
    0.000000000000,          !- Vertex 1 Y-coordinate {m}
    14.250000000000,         !- Vertex 1 Z-coordinate {m}
    1.350000000000,          !- Vertex 2 X-coordinate {m}
    0.000000000000,          !- Vertex 2 Y-coordinate {m}
    11.400000000000,         !- Vertex 2 Z-coordinate {m}
    7.450000000000,          !- Vertex 3 X-coordinate {m}
    0.000000000000,          !- Vertex 3 Y-coordinate {m}
    11.400000000000,         !- Vertex 3 Z-coordinate {m}
    7.450000000000,          !- Vertex 4 X-coordinate {m}
    0.000000000000,          !- Vertex 4 Y-coordinate {m}
    14.250000000000;         !- Vertex 4 Z-coordinate {m}

BuildingSurface:Detailed,
    AF52FA,                  !- Name
    Roof,                    !- Surface Type
    Exterior Roof,           !- Construction Name
    APTO02_P5,               !- Zone Name
    Outdoors,                !- Outside Boundary Condition
    ,                        !- Outside Boundary Condition Object
    SunExposed,              !- Sun Exposure
    WindExposed,             !- Wind Exposure
    0.0,                     !- View Factor to Ground
    8,                       !- Number of Vertices
    0.000000000000,          !- Vertex 1 X-coordinate {m}
    6.750000000000,          !- Vertex 1 Y-coordinate {m}
    14.250000000000,         !- Vertex 1 Z-coordinate {m}
    0.000000000000,          !- Vertex 2 X-coordinate {m}
    0.950000000000,          !- Vertex 2 Y-coordinate {m}
    14.250000000000,         !- Vertex 2 Z-coordinate {m}
    1.350000000000,          !- Vertex 3 X-coordinate {m}
    0.950000000000,          !- Vertex 3 Y-coordinate {m}
    14.250000000000,         !- Vertex 3 Z-coordinate {m}
    1.350000000000,          !- Vertex 4 X-coordinate {m}
    0.000000000000,          !- Vertex 4 Y-coordinate {m}
    14.250000000000,         !- Vertex 4 Z-coordinate {m}
    7.450000000000,          !- Vertex 5 X-coordinate {m}
    0.000000000000,          !- Vertex 5 Y-coordinate {m}
    14.250000000000,         !- Vertex 5 Z-coordinate {m}
    7.450000000000,          !- Vertex 6 X-coordinate {m}
    3.600000000000,          !- Vertex 6 Y-coordinate {m}
    14.250000000000,         !- Vertex 6 Z-coordinate {m}
    5.800000000000,          !- Vertex 7 X-coordinate {m}
    3.600000000000,          !- Vertex 7 Y-coordinate {m}
    14.250000000000,         !- Vertex 7 Z-coordinate {m}
    5.800000000000,          !- Vertex 8 X-coordinate {m}
    6.750000000000,          !- Vertex 8 Y-coordinate {m}
    14.250000000000;         !- Vertex 8 Z-coordinate {m}

BuildingSurface:Detailed,
    80994F,                  !- Name
    Floor,                   !- Surface Type
    Interior Floor,          !- Construction Name
    APTO02_P5,               !- Zone Name
    Surface,                 !- Outside Boundary Condition
    15EE7D,                  !- Outside Boundary Condition Object
    NoSun,                   !- Sun Exposure
    NoWind,                  !- Wind Exposure
    ,                        !- View Factor to Ground
    8,                       !- Number of Vertices
    5.800000000000,          !- Vertex 1 X-coordinate {m}
    6.750000000000,          !- Vertex 1 Y-coordinate {m}
    11.400000000000,         !- Vertex 1 Z-coordinate {m}
    5.800000000000,          !- Vertex 2 X-coordinate {m}
    3.600000000000,          !- Vertex 2 Y-coordinate {m}
    11.400000000000,         !- Vertex 2 Z-coordinate {m}
    7.450000000000,          !- Vertex 3 X-coordinate {m}
    3.600000000000,          !- Vertex 3 Y-coordinate {m}
    11.400000000000,         !- Vertex 3 Z-coordinate {m}
    7.450000000000,          !- Vertex 4 X-coordinate {m}
    0.000000000000,          !- Vertex 4 Y-coordinate {m}
    11.400000000000,         !- Vertex 4 Z-coordinate {m}
    1.350000000000,          !- Vertex 5 X-coordinate {m}
    0.000000000000,          !- Vertex 5 Y-coordinate {m}
    11.400000000000,         !- Vertex 5 Z-coordinate {m}
    1.350000000000,          !- Vertex 6 X-coordinate {m}
    0.950000000000,          !- Vertex 6 Y-coordinate {m}
    11.400000000000,         !- Vertex 6 Z-coordinate {m}
    0.000000000000,          !- Vertex 7 X-coordinate {m}
    0.950000000000,          !- Vertex 7 Y-coordinate {m}
    11.400000000000,         !- Vertex 7 Z-coordinate {m}
    0.000000000000,          !- Vertex 8 X-coordinate {m}
    6.750000000000,          !- Vertex 8 Y-coordinate {m}
    11.400000000000;         !- Vertex 8 Z-coordinate {m}

BuildingSurface:Detailed,
    4EA9AE,                  !- Name
    Wall,                    !- Surface Type
    Exterior Wall North,     !- Construction Name
    CIRCULA_P1,              !- Zone Name
    Outdoors,                !- Outside Boundary Condition
    ,                        !- Outside Boundary Condition Object
    SunExposed,              !- Sun Exposure
    WindExposed,             !- Wind Exposure
    ,                        !- View Factor to Ground
    4,                       !- Number of Vertices
    9.700000000000,          !- Vertex 1 X-coordinate {m}
    3.600000000000,          !- Vertex 1 Y-coordinate {m}
    2.850000000000,          !- Vertex 1 Z-coordinate {m}
    9.700000000000,          !- Vertex 2 X-coordinate {m}
    3.600000000000,          !- Vertex 2 Y-coordinate {m}
    0.000000000000,          !- Vertex 2 Z-coordinate {m}
    7.450000000000,          !- Vertex 3 X-coordinate {m}
    3.600000000000,          !- Vertex 3 Y-coordinate {m}
    0.000000000000,          !- Vertex 3 Z-coordinate {m}
    7.450000000000,          !- Vertex 4 X-coordinate {m}
    3.600000000000,          !- Vertex 4 Y-coordinate {m}
    2.850000000000;          !- Vertex 4 Z-coordinate {m}


!-   ===========  ALL OBJECTS IN CLASS: FENESTRATIONSURFACE:DETAILED ===========

FenestrationSurface:Detailed,
    P1_W09 (WC),             !- Name
    Window,                  !- Surface Type
    Exterior Window,         !- Construction Name
    D0C134,                  !- Building Surface Name
    ,                        !- Outside Boundary Condition Object
    ,                        !- View Factor to Ground
    ,                        !- Frame and Divider Name
    ,                        !- Multiplier
    4,                       !- Number of Vertices
    0.175010184979,          !- Vertex 1 X-coordinate {m}
    0.950000000000,          !- Vertex 1 Y-coordinate {m}
    2.102018387440,          !- Vertex 1 Z-coordinate {m}
    0.175010184979,          !- Vertex 2 X-coordinate {m}
    0.950000000000,          !- Vertex 2 Y-coordinate {m}
    1.352018387440,          !- Vertex 2 Z-coordinate {m}
    1.174983866385,          !- Vertex 3 X-coordinate {m}
    0.950000000000,          !- Vertex 3 Y-coordinate {m}
    1.352540312147,          !- Vertex 3 Z-coordinate {m}
    1.174983866385,          !- Vertex 4 X-coordinate {m}
    0.950000000000,          !- Vertex 4 Y-coordinate {m}
    2.102540312147;          !- Vertex 4 Z-coordinate {m}

FenestrationSurface:Detailed,
    P1_W10 (Kitchen),        !- Name
    Window,                  !- Surface Type
    Exterior Window,         !- Construction Name
    D9998B,                  !- Building Surface Name
    ,                        !- Outside Boundary Condition Object
    ,                        !- View Factor to Ground
    ,                        !- Frame and Divider Name
    ,                        !- Multiplier
    4,                       !- Number of Vertices
    1.350000000000,          !- Vertex 1 X-coordinate {m}
    0.750009468060,          !- Vertex 1 Y-coordinate {m}
    2.098623946811,          !- Vertex 1 Z-coordinate {m}
    1.350000000000,          !- Vertex 2 X-coordinate {m}
    0.750009468060,          !- Vertex 2 Y-coordinate {m}
    1.098623946811,          !- Vertex 2 Z-coordinate {m}
    1.350000000000,          !- Vertex 3 X-coordinate {m}
    0.198709762549,          !- Vertex 3 Y-coordinate {m}
    1.083988042668,          !- Vertex 3 Z-coordinate {m}
    1.350000000000,          !- Vertex 4 X-coordinate {m}
    0.198709762549,          !- Vertex 4 Y-coordinate {m}
    2.083988042668;          !- Vertex 4 Z-coordinate {m}

FenestrationSurface:Detailed,
    P1_W06,                  !- Name
    Window,                  !- Surface Type
    Exterior Window,         !- Construction Name
    AC29BB,                  !- Building Surface Name
    ,                        !- Outside Boundary Condition Object
    ,                        !- View Factor to Ground
    ,                        !- Frame and Divider Name
    ,                        !- Multiplier
    4,                       !- Number of Vertices
    2.324997536713,          !- Vertex 1 X-coordinate {m}
    6.750000000000,          !- Vertex 1 Y-coordinate {m}
    2.099071482689,          !- Vertex 1 Z-coordinate {m}
    2.324997536713,          !- Vertex 2 X-coordinate {m}
    6.750000000000,          !- Vertex 2 Y-coordinate {m}
    1.099071482689,          !- Vertex 2 Z-coordinate {m}
    0.775000121538,          !- Vertex 3 X-coordinate {m}
    6.750000000000,          !- Vertex 3 Y-coordinate {m}
    1.099793752053,          !- Vertex 3 Z-coordinate {m}
    0.775000121538,          !- Vertex 4 X-coordinate {m}
    6.750000000000,          !- Vertex 4 Y-coordinate {m}
    2.099793752053;          !- Vertex 4 Z-coordinate {m}

FenestrationSurface:Detailed,
    P1_W07,                  !- Name
    Window,                  !- Surface Type
    Exterior Window,         !- Construction Name
    AC29BB,                  !- Building Surface Name
    ,                        !- Outside Boundary Condition Object
    ,                        !- View Factor to Ground
    ,                        !- Frame and Divider Name
    ,                        !- Multiplier
    4,                       !- Number of Vertices
    5.074870082628,          !- Vertex 1 X-coordinate {m}
    6.750000000000,          !- Vertex 1 Y-coordinate {m}
    2.093258026874,          !- Vertex 1 Z-coordinate {m}
    5.074870082628,          !- Vertex 2 X-coordinate {m}
    6.750000000000,          !- Vertex 2 Y-coordinate {m}
    1.093258026874,          !- Vertex 2 Z-coordinate {m}
    3.525002331787,          !- Vertex 3 X-coordinate {m}
    6.750000000000,          !- Vertex 3 Y-coordinate {m}
    1.099096606445,          !- Vertex 3 Z-coordinate {m}
    3.525002331787,          !- Vertex 4 X-coordinate {m}
    6.750000000000,          !- Vertex 4 Y-coordinate {m}
    2.099096606445;          !- Vertex 4 Z-coordinate {m}

FenestrationSurface:Detailed,
    P1_W08 (Door),           !- Name
    Window,                  !- Surface Type
    Exterior Window,         !- Construction Name
    80036F,                  !- Building Surface Name
    ,                        !- Outside Boundary Condition Object
    ,                        !- View Factor to Ground
    ,                        !- Frame and Divider Name
    ,                        !- Multiplier
    4,                       !- Number of Vertices
    7.225000000000,          !- Vertex 1 X-coordinate {m}
    3.600000000000,          !- Vertex 1 Y-coordinate {m}
    2.100000000000,          !- Vertex 1 Z-coordinate {m}
    7.225000000000,          !- Vertex 2 X-coordinate {m}
    3.600000000000,          !- Vertex 2 Y-coordinate {m}
    0.050000000000,          !- Vertex 2 Z-coordinate {m}
    6.025000000000,          !- Vertex 3 X-coordinate {m}
    3.600000000000,          !- Vertex 3 Y-coordinate {m}
    0.050000000000,          !- Vertex 3 Z-coordinate {m}
    6.025000000000,          !- Vertex 4 X-coordinate {m}
    3.600000000000,          !- Vertex 4 Y-coordinate {m}
    2.100000000000;          !- Vertex 4 Z-coordinate {m}

FenestrationSurface:Detailed,
    P1_W04 (WC),             !- Name
    Window,                  !- Surface Type
    Exterior Window,         !- Construction Name
    79F336,                  !- Building Surface Name
    ,                        !- Outside Boundary Condition Object
    ,                        !- View Factor to Ground
    ,                        !- Frame and Divider Name
    ,                        !- Multiplier
    4,                       !- Number of Vertices
    1.174943055996,          !- Vertex 1 X-coordinate {m}
    -0.950000000000,         !- Vertex 1 Y-coordinate {m}
    2.095227751175,          !- Vertex 1 Z-coordinate {m}
    1.172354053991,          !- Vertex 2 X-coordinate {m}
    -0.950000000000,         !- Vertex 2 Y-coordinate {m}
    1.345250095944,          !- Vertex 2 Z-coordinate {m}
    0.172532085488,          !- Vertex 3 X-coordinate {m}
    -0.950000000000,         !- Vertex 3 Y-coordinate {m}
    1.356980816964,          !- Vertex 3 Z-coordinate {m}
    0.175121087494,          !- Vertex 4 X-coordinate {m}
    -0.950000000000,         !- Vertex 4 Y-coordinate {m}
    2.106958472195;          !- Vertex 4 Z-coordinate {m}

FenestrationSurface:Detailed,
    P1_W05 (Kitchen),        !- Name
    Window,                  !- Surface Type
    Exterior Window,         !- Construction Name
    357850,                  !- Building Surface Name
    ,                        !- Outside Boundary Condition Object
    ,                        !- View Factor to Ground
    ,                        !- Frame and Divider Name
    ,                        !- Multiplier
    4,                       !- Number of Vertices
    1.350000000000,          !- Vertex 1 X-coordinate {m}
    -0.199677588201,         !- Vertex 1 Y-coordinate {m}
    2.091976384209,          !- Vertex 1 Z-coordinate {m}
    1.350000000000,          !- Vertex 2 X-coordinate {m}
    -0.199677588201,         !- Vertex 2 Y-coordinate {m}
    1.091976384209,          !- Vertex 2 Z-coordinate {m}
    1.350000000000,          !- Vertex 3 X-coordinate {m}
    -0.750052959934,         !- Vertex 3 Y-coordinate {m}
    1.096745897660,          !- Vertex 3 Z-coordinate {m}
    1.350000000000,          !- Vertex 4 X-coordinate {m}
    -0.750052959934,         !- Vertex 4 Y-coordinate {m}
    2.096745897660;          !- Vertex 4 Z-coordinate {m}

FenestrationSurface:Detailed,
    P1_W01,                  !- Name
    Window,                  !- Surface Type
    Exterior Window,         !- Construction Name
    107503,                  !- Building Surface Name
    ,                        !- Outside Boundary Condition Object
    ,                        !- View Factor to Ground
    ,                        !- Frame and Divider Name
    ,                        !- Multiplier
    4,                       !- Number of Vertices
    0.775002108892,          !- Vertex 1 X-coordinate {m}
    -6.750000000000,         !- Vertex 1 Y-coordinate {m}
    2.099140867924,          !- Vertex 1 Z-coordinate {m}
    0.775002108892,          !- Vertex 2 X-coordinate {m}
    -6.750000000000,         !- Vertex 2 Y-coordinate {m}
    1.099140867924,          !- Vertex 2 Z-coordinate {m}
    2.324951871339,          !- Vertex 3 X-coordinate {m}
    -6.750000000000,         !- Vertex 3 Y-coordinate {m}
    1.095896012318,          !- Vertex 3 Z-coordinate {m}
    2.324951871339,          !- Vertex 4 X-coordinate {m}
    -6.750000000000,         !- Vertex 4 Y-coordinate {m}
    2.095896012318;          !- Vertex 4 Z-coordinate {m}

FenestrationSurface:Detailed,
    P1_W02,                  !- Name
    Window,                  !- Surface Type
    Exterior Window,         !- Construction Name
    107503,                  !- Building Surface Name
    ,                        !- Outside Boundary Condition Object
    ,                        !- View Factor to Ground
    ,                        !- Frame and Divider Name
    ,                        !- Multiplier
    4,                       !- Number of Vertices
    3.525007765146,          !- Vertex 1 X-coordinate {m}
    -6.750000000000,         !- Vertex 1 Y-coordinate {m}
    2.101648557228,          !- Vertex 1 Z-coordinate {m}
    3.525007765146,          !- Vertex 2 X-coordinate {m}
    -6.750000000000,         !- Vertex 2 Y-coordinate {m}
    1.101648557228,          !- Vertex 2 Z-coordinate {m}
    5.074983646435,          !- Vertex 3 X-coordinate {m}
    -6.750000000000,         !- Vertex 3 Y-coordinate {m}
    1.102392379647,          !- Vertex 3 Z-coordinate {m}
    5.074983646435,          !- Vertex 4 X-coordinate {m}
    -6.750000000000,         !- Vertex 4 Y-coordinate {m}
    2.102392379647;          !- Vertex 4 Z-coordinate {m}

FenestrationSurface:Detailed,
    P1_W03 (Door),           !- Name
    Window,                  !- Surface Type
    Exterior Window,         !- Construction Name
    321E96,                  !- Building Surface Name
    ,                        !- Outside Boundary Condition Object
    ,                        !- View Factor to Ground
    ,                        !- Frame and Divider Name
    ,                        !- Multiplier
    4,                       !- Number of Vertices
    6.075000000000,          !- Vertex 1 X-coordinate {m}
    -3.600000000000,         !- Vertex 1 Y-coordinate {m}
    2.100000000000,          !- Vertex 1 Z-coordinate {m}
    6.075000000000,          !- Vertex 2 X-coordinate {m}
    -3.600000000000,         !- Vertex 2 Y-coordinate {m}
    0.050000000000,          !- Vertex 2 Z-coordinate {m}
    7.275000000000,          !- Vertex 3 X-coordinate {m}
    -3.600000000000,         !- Vertex 3 Y-coordinate {m}
    0.050000000000,          !- Vertex 3 Z-coordinate {m}
    7.275000000000,          !- Vertex 4 X-coordinate {m}
    -3.600000000000,         !- Vertex 4 Y-coordinate {m}
    2.100000000000;          !- Vertex 4 Z-coordinate {m}

FenestrationSurface:Detailed,
    P1_W14 (WC),             !- Name
    Window,                  !- Surface Type
    Exterior Window,         !- Construction Name
    DC49BD,                  !- Building Surface Name
    ,                        !- Outside Boundary Condition Object
    ,                        !- View Factor to Ground
    ,                        !- Frame and Divider Name
    ,                        !- Multiplier
    4,                       !- Number of Vertices
    15.975017816192,         !- Vertex 1 X-coordinate {m}
    0.950000000000,          !- Vertex 1 Y-coordinate {m}
    2.102669486705,          !- Vertex 1 Z-coordinate {m}
    15.971820644442,         !- Vertex 2 X-coordinate {m}
    0.950000000000,          !- Vertex 2 Y-coordinate {m}
    1.352703563600,          !- Vertex 2 Z-coordinate {m}
    16.971705803236,         !- Vertex 3 X-coordinate {m}
    0.950000000000,          !- Vertex 3 Y-coordinate {m}
    1.356263089003,          !- Vertex 3 Z-coordinate {m}
    16.974902974986,         !- Vertex 4 X-coordinate {m}
    0.950000000000,          !- Vertex 4 Y-coordinate {m}
    2.106229012108;          !- Vertex 4 Z-coordinate {m}

FenestrationSurface:Detailed,
    P1_W15 (Kitchen),        !- Name
    Window,                  !- Surface Type
    Exterior Window,         !- Construction Name
    68AD2F,                  !- Building Surface Name
    ,                        !- Outside Boundary Condition Object
    ,                        !- View Factor to Ground
    ,                        !- Frame and Divider Name
    ,                        !- Multiplier
    4,                       !- Number of Vertices
    15.800000000000,         !- Vertex 1 X-coordinate {m}
    0.199796947000,          !- Vertex 1 Y-coordinate {m}
    2.106369408884,          !- Vertex 1 Z-coordinate {m}
    15.800000000000,         !- Vertex 2 X-coordinate {m}
    0.199796947000,          !- Vertex 2 Y-coordinate {m}
    1.106369408884,          !- Vertex 2 Z-coordinate {m}
    15.800000000000,         !- Vertex 3 X-coordinate {m}
    0.750115238866,          !- Vertex 3 Y-coordinate {m}
    1.095200573657,          !- Vertex 3 Z-coordinate {m}
    15.800000000000,         !- Vertex 4 X-coordinate {m}
    0.750115238866,          !- Vertex 4 Y-coordinate {m}
    2.095200573657;          !- Vertex 4 Z-coordinate {m}

FenestrationSurface:Detailed,
    P1_W11,                  !- Name
    Window,                  !- Surface Type
    Exterior Window,         !- Construction Name
    893457,                  !- Building Surface Name
    ,                        !- Outside Boundary Condition Object
    ,                        !- View Factor to Ground
    ,                        !- Frame and Divider Name
    ,                        !- Multiplier
    4,                       !- Number of Vertices
    16.374622712237,         !- Vertex 1 X-coordinate {m}
    6.750000000000,          !- Vertex 1 Y-coordinate {m}
    2.111485136957,          !- Vertex 1 Z-coordinate {m}
    16.374622712237,         !- Vertex 2 X-coordinate {m}
    6.750000000000,          !- Vertex 2 Y-coordinate {m}
    1.111485136957,          !- Vertex 2 Z-coordinate {m}
    14.825026037809,         !- Vertex 3 X-coordinate {m}
    6.750000000000,          !- Vertex 3 Y-coordinate {m}
    1.103018700894,          !- Vertex 3 Z-coordinate {m}
    14.825026037809,         !- Vertex 4 X-coordinate {m}
    6.750000000000,          !- Vertex 4 Y-coordinate {m}
    2.103018700894;          !- Vertex 4 Z-coordinate {m}

FenestrationSurface:Detailed,
    P1_W12,                  !- Name
    Window,                  !- Surface Type
    Exterior Window,         !- Construction Name
    893457,                  !- Building Surface Name
    ,                        !- Outside Boundary Condition Object
    ,                        !- View Factor to Ground
    ,                        !- Frame and Divider Name
    ,                        !- Multiplier
    4,                       !- Number of Vertices
    13.624950344624,         !- Vertex 1 X-coordinate {m}
    6.750000000000,          !- Vertex 1 Y-coordinate {m}
    2.095831437167,          !- Vertex 1 Z-coordinate {m}
    13.624950344624,         !- Vertex 2 X-coordinate {m}
    6.750000000000,          !- Vertex 2 Y-coordinate {m}
    1.095831437167,          !- Vertex 2 Z-coordinate {m}
    12.075002314862,         !- Vertex 3 X-coordinate {m}
    6.750000000000,          !- Vertex 3 Y-coordinate {m}
    1.099099890851,          !- Vertex 3 Z-coordinate {m}
    12.075002314862,         !- Vertex 4 X-coordinate {m}
    6.750000000000,          !- Vertex 4 Y-coordinate {m}
    2.099099890851;          !- Vertex 4 Z-coordinate {m}

FenestrationSurface:Detailed,
    P1_W13 (Door),           !- Name
    Window,                  !- Surface Type
    Exterior Window,         !- Construction Name
    AC4F9B,                  !- Building Surface Name
    ,                        !- Outside Boundary Condition Object
    ,                        !- View Factor to Ground
    ,                        !- Frame and Divider Name
    ,                        !- Multiplier
    4,                       !- Number of Vertices
    11.075000000000,         !- Vertex 1 X-coordinate {m}
    3.600000000000,          !- Vertex 1 Y-coordinate {m}
    2.100000000000,          !- Vertex 1 Z-coordinate {m}
    11.075000000000,         !- Vertex 2 X-coordinate {m}
    3.600000000000,          !- Vertex 2 Y-coordinate {m}
    0.050000000000,          !- Vertex 2 Z-coordinate {m}
    9.875000000000,          !- Vertex 3 X-coordinate {m}
    3.600000000000,          !- Vertex 3 Y-coordinate {m}
    0.050000000000,          !- Vertex 3 Z-coordinate {m}
    9.875000000000,          !- Vertex 4 X-coordinate {m}
    3.600000000000,          !- Vertex 4 Y-coordinate {m}
    2.100000000000;          !- Vertex 4 Z-coordinate {m}

FenestrationSurface:Detailed,
    P1_W19 (WC),             !- Name
    Window,                  !- Surface Type
    Exterior Window,         !- Construction Name
    FA2B7B,                  !- Building Surface Name
    ,                        !- Outside Boundary Condition Object
    ,                        !- View Factor to Ground
    ,                        !- Frame and Divider Name
    ,                        !- Multiplier
    4,                       !- Number of Vertices
    16.974957836413,         !- Vertex 1 X-coordinate {m}
    -0.950000000000,         !- Vertex 1 Y-coordinate {m}
    2.095893461676,          !- Vertex 1 Z-coordinate {m}
    16.974957836413,         !- Vertex 2 X-coordinate {m}
    -0.950000000000,         !- Vertex 2 Y-coordinate {m}
    1.345893461676,          !- Vertex 2 Z-coordinate {m}
    15.975187987729,         !- Vertex 3 X-coordinate {m}
    -0.950000000000,         !- Vertex 3 Y-coordinate {m}
    1.358669472430,          !- Vertex 3 Z-coordinate {m}
    15.975187987729,         !- Vertex 4 X-coordinate {m}
    -0.950000000000,         !- Vertex 4 Y-coordinate {m}
    2.108669472430;          !- Vertex 4 Z-coordinate {m}

FenestrationSurface:Detailed,
    P1_W20 (Kitchen),        !- Name
    Window,                  !- Surface Type
    Exterior Window,         !- Construction Name
    2B2B70,                  !- Building Surface Name
    ,                        !- Outside Boundary Condition Object
    ,                        !- View Factor to Ground
    ,                        !- Frame and Divider Name
    ,                        !- Multiplier
    4,                       !- Number of Vertices
    15.800000000000,         !- Vertex 1 X-coordinate {m}
    -0.750004324765,         !- Vertex 1 Y-coordinate {m}
    2.100930018436,          !- Vertex 1 Z-coordinate {m}
    15.800000000000,         !- Vertex 2 X-coordinate {m}
    -0.750004324765,         !- Vertex 2 Y-coordinate {m}
    1.100930018436,          !- Vertex 2 Z-coordinate {m}
    15.800000000000,         !- Vertex 3 X-coordinate {m}
    -0.199988794135,         !- Vertex 3 Y-coordinate {m}
    1.101497012867,          !- Vertex 3 Z-coordinate {m}
    15.800000000000,         !- Vertex 4 X-coordinate {m}
    -0.199988794135,         !- Vertex 4 Y-coordinate {m}
    2.101497012867;          !- Vertex 4 Z-coordinate {m}

FenestrationSurface:Detailed,
    P1_W16,                  !- Name
    Window,                  !- Surface Type
    Exterior Window,         !- Construction Name
    1E9817,                  !- Building Surface Name
    ,                        !- Outside Boundary Condition Object
    ,                        !- View Factor to Ground
    ,                        !- Frame and Divider Name
    ,                        !- Multiplier
    4,                       !- Number of Vertices
    14.825000773784,         !- Vertex 1 X-coordinate {m}
    -6.750000000000,         !- Vertex 1 Y-coordinate {m}
    2.099479592702,          !- Vertex 1 Z-coordinate {m}
    14.825000773784,         !- Vertex 2 X-coordinate {m}
    -6.750000000000,         !- Vertex 2 Y-coordinate {m}
    1.099479592702,          !- Vertex 2 Z-coordinate {m}
    16.374990104405,         !- Vertex 3 X-coordinate {m}
    -6.750000000000,         !- Vertex 3 Y-coordinate {m}
    1.098138989477,          !- Vertex 3 Z-coordinate {m}
    16.374990104405,         !- Vertex 4 X-coordinate {m}
    -6.750000000000,         !- Vertex 4 Y-coordinate {m}
    2.098138989477;          !- Vertex 4 Z-coordinate {m}

FenestrationSurface:Detailed,
    P1_W17,                  !- Name
    Window,                  !- Surface Type
    Exterior Window,         !- Construction Name
    1E9817,                  !- Building Surface Name
    ,                        !- Outside Boundary Condition Object
    ,                        !- View Factor to Ground
    ,                        !- Frame and Divider Name
    ,                        !- Multiplier
    4,                       !- Number of Vertices
    12.075000006439,         !- Vertex 1 X-coordinate {m}
    -6.750000000000,         !- Vertex 1 Y-coordinate {m}
    2.099952527930,          !- Vertex 1 Z-coordinate {m}
    12.075000006439,         !- Vertex 2 X-coordinate {m}
    -6.750000000000,         !- Vertex 2 Y-coordinate {m}
    1.099952527930,          !- Vertex 2 Z-coordinate {m}
    13.624970130996,         !- Vertex 3 X-coordinate {m}
    -6.750000000000,         !- Vertex 3 Y-coordinate {m}
    1.103233150038,          !- Vertex 3 Z-coordinate {m}
    13.624970130996,         !- Vertex 4 X-coordinate {m}
    -6.750000000000,         !- Vertex 4 Y-coordinate {m}
    2.103233150038;          !- Vertex 4 Z-coordinate {m}

FenestrationSurface:Detailed,
    P1_W18 (Door),           !- Name
    Window,                  !- Surface Type
    Exterior Window,         !- Construction Name
    38CE97,                  !- Building Surface Name
    ,                        !- Outside Boundary Condition Object
    ,                        !- View Factor to Ground
    ,                        !- Frame and Divider Name
    ,                        !- Multiplier
    4,                       !- Number of Vertices
    9.925000000000,          !- Vertex 1 X-coordinate {m}
    -3.600000000000,         !- Vertex 1 Y-coordinate {m}
    2.100000000000,          !- Vertex 1 Z-coordinate {m}
    9.925000000000,          !- Vertex 2 X-coordinate {m}
    -3.600000000000,         !- Vertex 2 Y-coordinate {m}
    0.050000000000,          !- Vertex 2 Z-coordinate {m}
    11.125000000000,         !- Vertex 3 X-coordinate {m}
    -3.600000000000,         !- Vertex 3 Y-coordinate {m}
    0.050000000000,          !- Vertex 3 Z-coordinate {m}
    11.125000000000,         !- Vertex 4 X-coordinate {m}
    -3.600000000000,         !- Vertex 4 Y-coordinate {m}
    2.100000000000;          !- Vertex 4 Z-coordinate {m}

FenestrationSurface:Detailed,
    P2_W19 (WC),             !- Name
    Window,                  !- Surface Type
    Exterior Window,         !- Construction Name
    CBA1F7,                  !- Building Surface Name
    ,                        !- Outside Boundary Condition Object
    ,                        !- View Factor to Ground
    ,                        !- Frame and Divider Name
    ,                        !- Multiplier
    4,                       !- Number of Vertices
    16.974957836413,         !- Vertex 1 X-coordinate {m}
    -0.950000000000,         !- Vertex 1 Y-coordinate {m}
    4.945893461676,          !- Vertex 1 Z-coordinate {m}
    16.974957836413,         !- Vertex 2 X-coordinate {m}
    -0.950000000000,         !- Vertex 2 Y-coordinate {m}
    4.195893461676,          !- Vertex 2 Z-coordinate {m}
    15.975187987729,         !- Vertex 3 X-coordinate {m}
    -0.950000000000,         !- Vertex 3 Y-coordinate {m}
    4.208669472430,          !- Vertex 3 Z-coordinate {m}
    15.975187987729,         !- Vertex 4 X-coordinate {m}
    -0.950000000000,         !- Vertex 4 Y-coordinate {m}
    4.958669472430;          !- Vertex 4 Z-coordinate {m}

FenestrationSurface:Detailed,
    P2_W20 (Kitchen),        !- Name
    Window,                  !- Surface Type
    Exterior Window,         !- Construction Name
    2E9E79,                  !- Building Surface Name
    ,                        !- Outside Boundary Condition Object
    ,                        !- View Factor to Ground
    ,                        !- Frame and Divider Name
    ,                        !- Multiplier
    4,                       !- Number of Vertices
    15.800000000000,         !- Vertex 1 X-coordinate {m}
    -0.750004324765,         !- Vertex 1 Y-coordinate {m}
    4.950930018436,          !- Vertex 1 Z-coordinate {m}
    15.800000000000,         !- Vertex 2 X-coordinate {m}
    -0.750004324765,         !- Vertex 2 Y-coordinate {m}
    3.950930018436,          !- Vertex 2 Z-coordinate {m}
    15.800000000000,         !- Vertex 3 X-coordinate {m}
    -0.199988794135,         !- Vertex 3 Y-coordinate {m}
    3.951497012867,          !- Vertex 3 Z-coordinate {m}
    15.800000000000,         !- Vertex 4 X-coordinate {m}
    -0.199988794135,         !- Vertex 4 Y-coordinate {m}
    4.951497012867;          !- Vertex 4 Z-coordinate {m}

FenestrationSurface:Detailed,
    P2_W16,                  !- Name
    Window,                  !- Surface Type
    Exterior Window,         !- Construction Name
    A705A5,                  !- Building Surface Name
    ,                        !- Outside Boundary Condition Object
    ,                        !- View Factor to Ground
    ,                        !- Frame and Divider Name
    ,                        !- Multiplier
    4,                       !- Number of Vertices
    14.825000773784,         !- Vertex 1 X-coordinate {m}
    -6.750000000000,         !- Vertex 1 Y-coordinate {m}
    4.949479592702,          !- Vertex 1 Z-coordinate {m}
    14.825000773784,         !- Vertex 2 X-coordinate {m}
    -6.750000000000,         !- Vertex 2 Y-coordinate {m}
    3.949479592702,          !- Vertex 2 Z-coordinate {m}
    16.374990104405,         !- Vertex 3 X-coordinate {m}
    -6.750000000000,         !- Vertex 3 Y-coordinate {m}
    3.948138989477,          !- Vertex 3 Z-coordinate {m}
    16.374990104405,         !- Vertex 4 X-coordinate {m}
    -6.750000000000,         !- Vertex 4 Y-coordinate {m}
    4.948138989477;          !- Vertex 4 Z-coordinate {m}

FenestrationSurface:Detailed,
    P2_W17,                  !- Name
    Window,                  !- Surface Type
    Exterior Window,         !- Construction Name
    A705A5,                  !- Building Surface Name
    ,                        !- Outside Boundary Condition Object
    ,                        !- View Factor to Ground
    ,                        !- Frame and Divider Name
    ,                        !- Multiplier
    4,                       !- Number of Vertices
    12.075000006439,         !- Vertex 1 X-coordinate {m}
    -6.750000000000,         !- Vertex 1 Y-coordinate {m}
    4.949952527930,          !- Vertex 1 Z-coordinate {m}
    12.075000006439,         !- Vertex 2 X-coordinate {m}
    -6.750000000000,         !- Vertex 2 Y-coordinate {m}
    3.949952527930,          !- Vertex 2 Z-coordinate {m}
    13.624970130996,         !- Vertex 3 X-coordinate {m}
    -6.750000000000,         !- Vertex 3 Y-coordinate {m}
    3.953233150038,          !- Vertex 3 Z-coordinate {m}
    13.624970130996,         !- Vertex 4 X-coordinate {m}
    -6.750000000000,         !- Vertex 4 Y-coordinate {m}
    4.953233150038;          !- Vertex 4 Z-coordinate {m}

FenestrationSurface:Detailed,
    P2_W18 (Door),           !- Name
    Window,                  !- Surface Type
    Exterior Window,         !- Construction Name
    3B2D52,                  !- Building Surface Name
    ,                        !- Outside Boundary Condition Object
    ,                        !- View Factor to Ground
    ,                        !- Frame and Divider Name
    ,                        !- Multiplier
    4,                       !- Number of Vertices
    9.925000000000,          !- Vertex 1 X-coordinate {m}
    -3.600000000000,         !- Vertex 1 Y-coordinate {m}
    4.950000000000,          !- Vertex 1 Z-coordinate {m}
    9.925000000000,          !- Vertex 2 X-coordinate {m}
    -3.600000000000,         !- Vertex 2 Y-coordinate {m}
    2.900000000000,          !- Vertex 2 Z-coordinate {m}
    11.125000000000,         !- Vertex 3 X-coordinate {m}
    -3.600000000000,         !- Vertex 3 Y-coordinate {m}
    2.900000000000,          !- Vertex 3 Z-coordinate {m}
    11.125000000000,         !- Vertex 4 X-coordinate {m}
    -3.600000000000,         !- Vertex 4 Y-coordinate {m}
    4.950000000000;          !- Vertex 4 Z-coordinate {m}

FenestrationSurface:Detailed,
    P2_W04 (WC),             !- Name
    Window,                  !- Surface Type
    Exterior Window,         !- Construction Name
    79DC25,                  !- Building Surface Name
    ,                        !- Outside Boundary Condition Object
    ,                        !- View Factor to Ground
    ,                        !- Frame and Divider Name
    ,                        !- Multiplier
    4,                       !- Number of Vertices
    1.174943055996,          !- Vertex 1 X-coordinate {m}
    -0.950000000000,         !- Vertex 1 Y-coordinate {m}
    4.945227751175,          !- Vertex 1 Z-coordinate {m}
    1.172354053991,          !- Vertex 2 X-coordinate {m}
    -0.950000000000,         !- Vertex 2 Y-coordinate {m}
    4.195250095944,          !- Vertex 2 Z-coordinate {m}
    0.172532085488,          !- Vertex 3 X-coordinate {m}
    -0.950000000000,         !- Vertex 3 Y-coordinate {m}
    4.206980816964,          !- Vertex 3 Z-coordinate {m}
    0.175121087494,          !- Vertex 4 X-coordinate {m}
    -0.950000000000,         !- Vertex 4 Y-coordinate {m}
    4.956958472195;          !- Vertex 4 Z-coordinate {m}

FenestrationSurface:Detailed,
    P2_W05 (Kitchen),        !- Name
    Window,                  !- Surface Type
    Exterior Window,         !- Construction Name
    245E88,                  !- Building Surface Name
    ,                        !- Outside Boundary Condition Object
    ,                        !- View Factor to Ground
    ,                        !- Frame and Divider Name
    ,                        !- Multiplier
    4,                       !- Number of Vertices
    1.350000000000,          !- Vertex 1 X-coordinate {m}
    -0.199677588201,         !- Vertex 1 Y-coordinate {m}
    4.941976384209,          !- Vertex 1 Z-coordinate {m}
    1.350000000000,          !- Vertex 2 X-coordinate {m}
    -0.199677588201,         !- Vertex 2 Y-coordinate {m}
    3.941976384209,          !- Vertex 2 Z-coordinate {m}
    1.350000000000,          !- Vertex 3 X-coordinate {m}
    -0.750052959934,         !- Vertex 3 Y-coordinate {m}
    3.946745897660,          !- Vertex 3 Z-coordinate {m}
    1.350000000000,          !- Vertex 4 X-coordinate {m}
    -0.750052959934,         !- Vertex 4 Y-coordinate {m}
    4.946745897660;          !- Vertex 4 Z-coordinate {m}

FenestrationSurface:Detailed,
    P2_W01,                  !- Name
    Window,                  !- Surface Type
    Exterior Window,         !- Construction Name
    CC5D64,                  !- Building Surface Name
    ,                        !- Outside Boundary Condition Object
    ,                        !- View Factor to Ground
    ,                        !- Frame and Divider Name
    ,                        !- Multiplier
    4,                       !- Number of Vertices
    0.775002108892,          !- Vertex 1 X-coordinate {m}
    -6.750000000000,         !- Vertex 1 Y-coordinate {m}
    4.949140867924,          !- Vertex 1 Z-coordinate {m}
    0.775002108892,          !- Vertex 2 X-coordinate {m}
    -6.750000000000,         !- Vertex 2 Y-coordinate {m}
    3.949140867924,          !- Vertex 2 Z-coordinate {m}
    2.324951871339,          !- Vertex 3 X-coordinate {m}
    -6.750000000000,         !- Vertex 3 Y-coordinate {m}
    3.945896012318,          !- Vertex 3 Z-coordinate {m}
    2.324951871339,          !- Vertex 4 X-coordinate {m}
    -6.750000000000,         !- Vertex 4 Y-coordinate {m}
    4.945896012318;          !- Vertex 4 Z-coordinate {m}

FenestrationSurface:Detailed,
    P2_W03 (Door),           !- Name
    Window,                  !- Surface Type
    Exterior Window,         !- Construction Name
    2EBC0D,                  !- Building Surface Name
    ,                        !- Outside Boundary Condition Object
    ,                        !- View Factor to Ground
    ,                        !- Frame and Divider Name
    ,                        !- Multiplier
    4,                       !- Number of Vertices
    6.075000000000,          !- Vertex 1 X-coordinate {m}
    -3.600000000000,         !- Vertex 1 Y-coordinate {m}
    4.950000000000,          !- Vertex 1 Z-coordinate {m}
    6.075000000000,          !- Vertex 2 X-coordinate {m}
    -3.600000000000,         !- Vertex 2 Y-coordinate {m}
    2.900000000000,          !- Vertex 2 Z-coordinate {m}
    7.275000000000,          !- Vertex 3 X-coordinate {m}
    -3.600000000000,         !- Vertex 3 Y-coordinate {m}
    2.900000000000,          !- Vertex 3 Z-coordinate {m}
    7.275000000000,          !- Vertex 4 X-coordinate {m}
    -3.600000000000,         !- Vertex 4 Y-coordinate {m}
    4.950000000000;          !- Vertex 4 Z-coordinate {m}

FenestrationSurface:Detailed,
    P2_W02,                  !- Name
    Window,                  !- Surface Type
    Exterior Window,         !- Construction Name
    CC5D64,                  !- Building Surface Name
    ,                        !- Outside Boundary Condition Object
    ,                        !- View Factor to Ground
    ,                        !- Frame and Divider Name
    ,                        !- Multiplier
    4,                       !- Number of Vertices
    3.525003268075,          !- Vertex 1 X-coordinate {m}
    -6.750000000000,         !- Vertex 1 Y-coordinate {m}
    4.948930506912,          !- Vertex 1 Z-coordinate {m}
    3.525003268075,          !- Vertex 2 X-coordinate {m}
    -6.750000000000,         !- Vertex 2 Y-coordinate {m}
    3.948930506912,          !- Vertex 2 Z-coordinate {m}
    5.074990393136,          !- Vertex 3 X-coordinate {m}
    -6.750000000000,         !- Vertex 3 Y-coordinate {m}
    3.948166339680,          !- Vertex 3 Z-coordinate {m}
    5.074990393136,          !- Vertex 4 X-coordinate {m}
    -6.750000000000,         !- Vertex 4 Y-coordinate {m}
    4.948166339680;          !- Vertex 4 Z-coordinate {m}

FenestrationSurface:Detailed,
    P2_W14 (WC),             !- Name
    Window,                  !- Surface Type
    Exterior Window,         !- Construction Name
    1D28CB,                  !- Building Surface Name
    ,                        !- Outside Boundary Condition Object
    ,                        !- View Factor to Ground
    ,                        !- Frame and Divider Name
    ,                        !- Multiplier
    4,                       !- Number of Vertices
    15.975017816192,         !- Vertex 1 X-coordinate {m}
    0.950000000000,          !- Vertex 1 Y-coordinate {m}
    4.952669486705,          !- Vertex 1 Z-coordinate {m}
    15.971820644442,         !- Vertex 2 X-coordinate {m}
    0.950000000000,          !- Vertex 2 Y-coordinate {m}
    4.202703563600,          !- Vertex 2 Z-coordinate {m}
    16.971705803236,         !- Vertex 3 X-coordinate {m}
    0.950000000000,          !- Vertex 3 Y-coordinate {m}
    4.206263089003,          !- Vertex 3 Z-coordinate {m}
    16.974902974986,         !- Vertex 4 X-coordinate {m}
    0.950000000000,          !- Vertex 4 Y-coordinate {m}
    4.956229012108;          !- Vertex 4 Z-coordinate {m}

FenestrationSurface:Detailed,
    P2_W15 (Kitchen),        !- Name
    Window,                  !- Surface Type
    Exterior Window,         !- Construction Name
    367111,                  !- Building Surface Name
    ,                        !- Outside Boundary Condition Object
    ,                        !- View Factor to Ground
    ,                        !- Frame and Divider Name
    ,                        !- Multiplier
    4,                       !- Number of Vertices
    15.800000000000,         !- Vertex 1 X-coordinate {m}
    0.199796947000,          !- Vertex 1 Y-coordinate {m}
    4.956369408884,          !- Vertex 1 Z-coordinate {m}
    15.800000000000,         !- Vertex 2 X-coordinate {m}
    0.199796947000,          !- Vertex 2 Y-coordinate {m}
    3.956369408884,          !- Vertex 2 Z-coordinate {m}
    15.800000000000,         !- Vertex 3 X-coordinate {m}
    0.750115238866,          !- Vertex 3 Y-coordinate {m}
    3.945200573657,          !- Vertex 3 Z-coordinate {m}
    15.800000000000,         !- Vertex 4 X-coordinate {m}
    0.750115238866,          !- Vertex 4 Y-coordinate {m}
    4.945200573657;          !- Vertex 4 Z-coordinate {m}

FenestrationSurface:Detailed,
    P2_W11,                  !- Name
    Window,                  !- Surface Type
    Exterior Window,         !- Construction Name
    BCD4CC,                  !- Building Surface Name
    ,                        !- Outside Boundary Condition Object
    ,                        !- View Factor to Ground
    ,                        !- Frame and Divider Name
    ,                        !- Multiplier
    4,                       !- Number of Vertices
    16.374622712237,         !- Vertex 1 X-coordinate {m}
    6.750000000000,          !- Vertex 1 Y-coordinate {m}
    4.961485136957,          !- Vertex 1 Z-coordinate {m}
    16.374622712237,         !- Vertex 2 X-coordinate {m}
    6.750000000000,          !- Vertex 2 Y-coordinate {m}
    3.961485136957,          !- Vertex 2 Z-coordinate {m}
    14.825026037809,         !- Vertex 3 X-coordinate {m}
    6.750000000000,          !- Vertex 3 Y-coordinate {m}
    3.953018700894,          !- Vertex 3 Z-coordinate {m}
    14.825026037809,         !- Vertex 4 X-coordinate {m}
    6.750000000000,          !- Vertex 4 Y-coordinate {m}
    4.953018700894;          !- Vertex 4 Z-coordinate {m}

FenestrationSurface:Detailed,
    P2_W12,                  !- Name
    Window,                  !- Surface Type
    Exterior Window,         !- Construction Name
    BCD4CC,                  !- Building Surface Name
    ,                        !- Outside Boundary Condition Object
    ,                        !- View Factor to Ground
    ,                        !- Frame and Divider Name
    ,                        !- Multiplier
    4,                       !- Number of Vertices
    13.624950344624,         !- Vertex 1 X-coordinate {m}
    6.750000000000,          !- Vertex 1 Y-coordinate {m}
    4.945831437167,          !- Vertex 1 Z-coordinate {m}
    13.624950344624,         !- Vertex 2 X-coordinate {m}
    6.750000000000,          !- Vertex 2 Y-coordinate {m}
    3.945831437167,          !- Vertex 2 Z-coordinate {m}
    12.075002314862,         !- Vertex 3 X-coordinate {m}
    6.750000000000,          !- Vertex 3 Y-coordinate {m}
    3.949099890851,          !- Vertex 3 Z-coordinate {m}
    12.075002314862,         !- Vertex 4 X-coordinate {m}
    6.750000000000,          !- Vertex 4 Y-coordinate {m}
    4.949099890851;          !- Vertex 4 Z-coordinate {m}

FenestrationSurface:Detailed,
    P2_W13 (Door),           !- Name
    Window,                  !- Surface Type
    Exterior Window,         !- Construction Name
    339EE3,                  !- Building Surface Name
    ,                        !- Outside Boundary Condition Object
    ,                        !- View Factor to Ground
    ,                        !- Frame and Divider Name
    ,                        !- Multiplier
    4,                       !- Number of Vertices
    11.075000000000,         !- Vertex 1 X-coordinate {m}
    3.600000000000,          !- Vertex 1 Y-coordinate {m}
    4.950000000000,          !- Vertex 1 Z-coordinate {m}
    11.075000000000,         !- Vertex 2 X-coordinate {m}
    3.600000000000,          !- Vertex 2 Y-coordinate {m}
    2.900000000000,          !- Vertex 2 Z-coordinate {m}
    9.875000000000,          !- Vertex 3 X-coordinate {m}
    3.600000000000,          !- Vertex 3 Y-coordinate {m}
    2.900000000000,          !- Vertex 3 Z-coordinate {m}
    9.875000000000,          !- Vertex 4 X-coordinate {m}
    3.600000000000,          !- Vertex 4 Y-coordinate {m}
    4.950000000000;          !- Vertex 4 Z-coordinate {m}

FenestrationSurface:Detailed,
    P2_W09 (WC),             !- Name
    Window,                  !- Surface Type
    Exterior Window,         !- Construction Name
    BFE148,                  !- Building Surface Name
    ,                        !- Outside Boundary Condition Object
    ,                        !- View Factor to Ground
    ,                        !- Frame and Divider Name
    ,                        !- Multiplier
    4,                       !- Number of Vertices
    0.175010184979,          !- Vertex 1 X-coordinate {m}
    0.950000000000,          !- Vertex 1 Y-coordinate {m}
    4.952018387440,          !- Vertex 1 Z-coordinate {m}
    0.175010184979,          !- Vertex 2 X-coordinate {m}
    0.950000000000,          !- Vertex 2 Y-coordinate {m}
    4.202018387440,          !- Vertex 2 Z-coordinate {m}
    1.174983866385,          !- Vertex 3 X-coordinate {m}
    0.950000000000,          !- Vertex 3 Y-coordinate {m}
    4.202540312147,          !- Vertex 3 Z-coordinate {m}
    1.174983866385,          !- Vertex 4 X-coordinate {m}
    0.950000000000,          !- Vertex 4 Y-coordinate {m}
    4.952540312147;          !- Vertex 4 Z-coordinate {m}

FenestrationSurface:Detailed,
    P2_W10 (Kitchen),        !- Name
    Window,                  !- Surface Type
    Exterior Window,         !- Construction Name
    7D743B,                  !- Building Surface Name
    ,                        !- Outside Boundary Condition Object
    ,                        !- View Factor to Ground
    ,                        !- Frame and Divider Name
    ,                        !- Multiplier
    4,                       !- Number of Vertices
    1.350000000000,          !- Vertex 1 X-coordinate {m}
    0.750009468060,          !- Vertex 1 Y-coordinate {m}
    4.948623946811,          !- Vertex 1 Z-coordinate {m}
    1.350000000000,          !- Vertex 2 X-coordinate {m}
    0.750009468060,          !- Vertex 2 Y-coordinate {m}
    3.948623946811,          !- Vertex 2 Z-coordinate {m}
    1.350000000000,          !- Vertex 3 X-coordinate {m}
    0.198709762549,          !- Vertex 3 Y-coordinate {m}
    3.933988042668,          !- Vertex 3 Z-coordinate {m}
    1.350000000000,          !- Vertex 4 X-coordinate {m}
    0.198709762549,          !- Vertex 4 Y-coordinate {m}
    4.933988042668;          !- Vertex 4 Z-coordinate {m}

FenestrationSurface:Detailed,
    P2_W06,                  !- Name
    Window,                  !- Surface Type
    Exterior Window,         !- Construction Name
    699230,                  !- Building Surface Name
    ,                        !- Outside Boundary Condition Object
    ,                        !- View Factor to Ground
    ,                        !- Frame and Divider Name
    ,                        !- Multiplier
    4,                       !- Number of Vertices
    2.324997536713,          !- Vertex 1 X-coordinate {m}
    6.750000000000,          !- Vertex 1 Y-coordinate {m}
    4.949071482689,          !- Vertex 1 Z-coordinate {m}
    2.324997536713,          !- Vertex 2 X-coordinate {m}
    6.750000000000,          !- Vertex 2 Y-coordinate {m}
    3.949071482689,          !- Vertex 2 Z-coordinate {m}
    0.775000121538,          !- Vertex 3 X-coordinate {m}
    6.750000000000,          !- Vertex 3 Y-coordinate {m}
    3.949793752053,          !- Vertex 3 Z-coordinate {m}
    0.775000121538,          !- Vertex 4 X-coordinate {m}
    6.750000000000,          !- Vertex 4 Y-coordinate {m}
    4.949793752053;          !- Vertex 4 Z-coordinate {m}

FenestrationSurface:Detailed,
    P2_W07,                  !- Name
    Window,                  !- Surface Type
    Exterior Window,         !- Construction Name
    699230,                  !- Building Surface Name
    ,                        !- Outside Boundary Condition Object
    ,                        !- View Factor to Ground
    ,                        !- Frame and Divider Name
    ,                        !- Multiplier
    4,                       !- Number of Vertices
    5.074870082628,          !- Vertex 1 X-coordinate {m}
    6.750000000000,          !- Vertex 1 Y-coordinate {m}
    4.943258026874,          !- Vertex 1 Z-coordinate {m}
    5.074870082628,          !- Vertex 2 X-coordinate {m}
    6.750000000000,          !- Vertex 2 Y-coordinate {m}
    3.943258026874,          !- Vertex 2 Z-coordinate {m}
    3.525002331787,          !- Vertex 3 X-coordinate {m}
    6.750000000000,          !- Vertex 3 Y-coordinate {m}
    3.949096606445,          !- Vertex 3 Z-coordinate {m}
    3.525002331787,          !- Vertex 4 X-coordinate {m}
    6.750000000000,          !- Vertex 4 Y-coordinate {m}
    4.949096606445;          !- Vertex 4 Z-coordinate {m}

FenestrationSurface:Detailed,
    P2_W08 (Door),           !- Name
    Window,                  !- Surface Type
    Exterior Window,         !- Construction Name
    39C379,                  !- Building Surface Name
    ,                        !- Outside Boundary Condition Object
    ,                        !- View Factor to Ground
    ,                        !- Frame and Divider Name
    ,                        !- Multiplier
    4,                       !- Number of Vertices
    7.225000000000,          !- Vertex 1 X-coordinate {m}
    3.600000000000,          !- Vertex 1 Y-coordinate {m}
    4.950000000000,          !- Vertex 1 Z-coordinate {m}
    7.225000000000,          !- Vertex 2 X-coordinate {m}
    3.600000000000,          !- Vertex 2 Y-coordinate {m}
    2.900000000000,          !- Vertex 2 Z-coordinate {m}
    6.025000000000,          !- Vertex 3 X-coordinate {m}
    3.600000000000,          !- Vertex 3 Y-coordinate {m}
    2.900000000000,          !- Vertex 3 Z-coordinate {m}
    6.025000000000,          !- Vertex 4 X-coordinate {m}
    3.600000000000,          !- Vertex 4 Y-coordinate {m}
    4.950000000000;          !- Vertex 4 Z-coordinate {m}

FenestrationSurface:Detailed,
    P3_W19 (WC),             !- Name
    Window,                  !- Surface Type
    Exterior Window,         !- Construction Name
    1C1EDA,                  !- Building Surface Name
    ,                        !- Outside Boundary Condition Object
    ,                        !- View Factor to Ground
    ,                        !- Frame and Divider Name
    ,                        !- Multiplier
    4,                       !- Number of Vertices
    16.974957836413,         !- Vertex 1 X-coordinate {m}
    -0.950000000000,         !- Vertex 1 Y-coordinate {m}
    7.795893461676,          !- Vertex 1 Z-coordinate {m}
    16.974957836413,         !- Vertex 2 X-coordinate {m}
    -0.950000000000,         !- Vertex 2 Y-coordinate {m}
    7.045893461676,          !- Vertex 2 Z-coordinate {m}
    15.975187987729,         !- Vertex 3 X-coordinate {m}
    -0.950000000000,         !- Vertex 3 Y-coordinate {m}
    7.058669472430,          !- Vertex 3 Z-coordinate {m}
    15.975187987729,         !- Vertex 4 X-coordinate {m}
    -0.950000000000,         !- Vertex 4 Y-coordinate {m}
    7.808669472430;          !- Vertex 4 Z-coordinate {m}

FenestrationSurface:Detailed,
    P3_W20 (Kitchen),        !- Name
    Window,                  !- Surface Type
    Exterior Window,         !- Construction Name
    98E968,                  !- Building Surface Name
    ,                        !- Outside Boundary Condition Object
    ,                        !- View Factor to Ground
    ,                        !- Frame and Divider Name
    ,                        !- Multiplier
    4,                       !- Number of Vertices
    15.800000000000,         !- Vertex 1 X-coordinate {m}
    -0.750004324765,         !- Vertex 1 Y-coordinate {m}
    7.800930018436,          !- Vertex 1 Z-coordinate {m}
    15.800000000000,         !- Vertex 2 X-coordinate {m}
    -0.750004324765,         !- Vertex 2 Y-coordinate {m}
    6.800930018436,          !- Vertex 2 Z-coordinate {m}
    15.800000000000,         !- Vertex 3 X-coordinate {m}
    -0.199988794135,         !- Vertex 3 Y-coordinate {m}
    6.801497012867,          !- Vertex 3 Z-coordinate {m}
    15.800000000000,         !- Vertex 4 X-coordinate {m}
    -0.199988794135,         !- Vertex 4 Y-coordinate {m}
    7.801497012867;          !- Vertex 4 Z-coordinate {m}

FenestrationSurface:Detailed,
    P3_W16,                  !- Name
    Window,                  !- Surface Type
    Exterior Window,         !- Construction Name
    C92B9E,                  !- Building Surface Name
    ,                        !- Outside Boundary Condition Object
    ,                        !- View Factor to Ground
    ,                        !- Frame and Divider Name
    ,                        !- Multiplier
    4,                       !- Number of Vertices
    14.825000773784,         !- Vertex 1 X-coordinate {m}
    -6.750000000000,         !- Vertex 1 Y-coordinate {m}
    7.799479592702,          !- Vertex 1 Z-coordinate {m}
    14.825000773784,         !- Vertex 2 X-coordinate {m}
    -6.750000000000,         !- Vertex 2 Y-coordinate {m}
    6.799479592702,          !- Vertex 2 Z-coordinate {m}
    16.374990104405,         !- Vertex 3 X-coordinate {m}
    -6.750000000000,         !- Vertex 3 Y-coordinate {m}
    6.798138989477,          !- Vertex 3 Z-coordinate {m}
    16.374990104405,         !- Vertex 4 X-coordinate {m}
    -6.750000000000,         !- Vertex 4 Y-coordinate {m}
    7.798138989477;          !- Vertex 4 Z-coordinate {m}

FenestrationSurface:Detailed,
    P3_W17,                  !- Name
    Window,                  !- Surface Type
    Exterior Window,         !- Construction Name
    C92B9E,                  !- Building Surface Name
    ,                        !- Outside Boundary Condition Object
    ,                        !- View Factor to Ground
    ,                        !- Frame and Divider Name
    ,                        !- Multiplier
    4,                       !- Number of Vertices
    12.075000006439,         !- Vertex 1 X-coordinate {m}
    -6.750000000000,         !- Vertex 1 Y-coordinate {m}
    7.799952527930,          !- Vertex 1 Z-coordinate {m}
    12.075000006439,         !- Vertex 2 X-coordinate {m}
    -6.750000000000,         !- Vertex 2 Y-coordinate {m}
    6.799952527930,          !- Vertex 2 Z-coordinate {m}
    13.624970130996,         !- Vertex 3 X-coordinate {m}
    -6.750000000000,         !- Vertex 3 Y-coordinate {m}
    6.803233150038,          !- Vertex 3 Z-coordinate {m}
    13.624970130996,         !- Vertex 4 X-coordinate {m}
    -6.750000000000,         !- Vertex 4 Y-coordinate {m}
    7.803233150038;          !- Vertex 4 Z-coordinate {m}

FenestrationSurface:Detailed,
    P3_W18 (Door),           !- Name
    Window,                  !- Surface Type
    Exterior Window,         !- Construction Name
    A48C06,                  !- Building Surface Name
    ,                        !- Outside Boundary Condition Object
    ,                        !- View Factor to Ground
    ,                        !- Frame and Divider Name
    ,                        !- Multiplier
    4,                       !- Number of Vertices
    9.925000000000,          !- Vertex 1 X-coordinate {m}
    -3.600000000000,         !- Vertex 1 Y-coordinate {m}
    7.800000000000,          !- Vertex 1 Z-coordinate {m}
    9.925000000000,          !- Vertex 2 X-coordinate {m}
    -3.600000000000,         !- Vertex 2 Y-coordinate {m}
    5.750000000000,          !- Vertex 2 Z-coordinate {m}
    11.125000000000,         !- Vertex 3 X-coordinate {m}
    -3.600000000000,         !- Vertex 3 Y-coordinate {m}
    5.750000000000,          !- Vertex 3 Z-coordinate {m}
    11.125000000000,         !- Vertex 4 X-coordinate {m}
    -3.600000000000,         !- Vertex 4 Y-coordinate {m}
    7.800000000000;          !- Vertex 4 Z-coordinate {m}

FenestrationSurface:Detailed,
    P3_W09 (WC),             !- Name
    Window,                  !- Surface Type
    Exterior Window,         !- Construction Name
    EF3859,                  !- Building Surface Name
    ,                        !- Outside Boundary Condition Object
    ,                        !- View Factor to Ground
    ,                        !- Frame and Divider Name
    ,                        !- Multiplier
    4,                       !- Number of Vertices
    0.175010184979,          !- Vertex 1 X-coordinate {m}
    0.950000000000,          !- Vertex 1 Y-coordinate {m}
    7.802018387440,          !- Vertex 1 Z-coordinate {m}
    0.175010184979,          !- Vertex 2 X-coordinate {m}
    0.950000000000,          !- Vertex 2 Y-coordinate {m}
    7.052018387440,          !- Vertex 2 Z-coordinate {m}
    1.174983866385,          !- Vertex 3 X-coordinate {m}
    0.950000000000,          !- Vertex 3 Y-coordinate {m}
    7.052540312147,          !- Vertex 3 Z-coordinate {m}
    1.174983866385,          !- Vertex 4 X-coordinate {m}
    0.950000000000,          !- Vertex 4 Y-coordinate {m}
    7.802540312147;          !- Vertex 4 Z-coordinate {m}

FenestrationSurface:Detailed,
    P3_W10 (Kitchen),        !- Name
    Window,                  !- Surface Type
    Exterior Window,         !- Construction Name
    A82370,                  !- Building Surface Name
    ,                        !- Outside Boundary Condition Object
    ,                        !- View Factor to Ground
    ,                        !- Frame and Divider Name
    ,                        !- Multiplier
    4,                       !- Number of Vertices
    1.350000000000,          !- Vertex 1 X-coordinate {m}
    0.750009468060,          !- Vertex 1 Y-coordinate {m}
    7.798623946811,          !- Vertex 1 Z-coordinate {m}
    1.350000000000,          !- Vertex 2 X-coordinate {m}
    0.750009468060,          !- Vertex 2 Y-coordinate {m}
    6.798623946811,          !- Vertex 2 Z-coordinate {m}
    1.350000000000,          !- Vertex 3 X-coordinate {m}
    0.198709762549,          !- Vertex 3 Y-coordinate {m}
    6.783988042668,          !- Vertex 3 Z-coordinate {m}
    1.350000000000,          !- Vertex 4 X-coordinate {m}
    0.198709762549,          !- Vertex 4 Y-coordinate {m}
    7.783988042668;          !- Vertex 4 Z-coordinate {m}

FenestrationSurface:Detailed,
    P3_W06,                  !- Name
    Window,                  !- Surface Type
    Exterior Window,         !- Construction Name
    AC638A,                  !- Building Surface Name
    ,                        !- Outside Boundary Condition Object
    ,                        !- View Factor to Ground
    ,                        !- Frame and Divider Name
    ,                        !- Multiplier
    4,                       !- Number of Vertices
    2.324997536713,          !- Vertex 1 X-coordinate {m}
    6.750000000000,          !- Vertex 1 Y-coordinate {m}
    7.799071482689,          !- Vertex 1 Z-coordinate {m}
    2.324997536713,          !- Vertex 2 X-coordinate {m}
    6.750000000000,          !- Vertex 2 Y-coordinate {m}
    6.799071482689,          !- Vertex 2 Z-coordinate {m}
    0.775000121538,          !- Vertex 3 X-coordinate {m}
    6.750000000000,          !- Vertex 3 Y-coordinate {m}
    6.799793752053,          !- Vertex 3 Z-coordinate {m}
    0.775000121538,          !- Vertex 4 X-coordinate {m}
    6.750000000000,          !- Vertex 4 Y-coordinate {m}
    7.799793752053;          !- Vertex 4 Z-coordinate {m}

FenestrationSurface:Detailed,
    P3_W07,                  !- Name
    Window,                  !- Surface Type
    Exterior Window,         !- Construction Name
    AC638A,                  !- Building Surface Name
    ,                        !- Outside Boundary Condition Object
    ,                        !- View Factor to Ground
    ,                        !- Frame and Divider Name
    ,                        !- Multiplier
    4,                       !- Number of Vertices
    5.074870082628,          !- Vertex 1 X-coordinate {m}
    6.750000000000,          !- Vertex 1 Y-coordinate {m}
    7.793258026874,          !- Vertex 1 Z-coordinate {m}
    5.074870082628,          !- Vertex 2 X-coordinate {m}
    6.750000000000,          !- Vertex 2 Y-coordinate {m}
    6.793258026874,          !- Vertex 2 Z-coordinate {m}
    3.525002331787,          !- Vertex 3 X-coordinate {m}
    6.750000000000,          !- Vertex 3 Y-coordinate {m}
    6.799096606445,          !- Vertex 3 Z-coordinate {m}
    3.525002331787,          !- Vertex 4 X-coordinate {m}
    6.750000000000,          !- Vertex 4 Y-coordinate {m}
    7.799096606445;          !- Vertex 4 Z-coordinate {m}

FenestrationSurface:Detailed,
    P3_W08 (Door),           !- Name
    Window,                  !- Surface Type
    Exterior Window,         !- Construction Name
    68BCDE,                  !- Building Surface Name
    ,                        !- Outside Boundary Condition Object
    ,                        !- View Factor to Ground
    ,                        !- Frame and Divider Name
    ,                        !- Multiplier
    4,                       !- Number of Vertices
    7.225000000000,          !- Vertex 1 X-coordinate {m}
    3.600000000000,          !- Vertex 1 Y-coordinate {m}
    7.800000000000,          !- Vertex 1 Z-coordinate {m}
    7.225000000000,          !- Vertex 2 X-coordinate {m}
    3.600000000000,          !- Vertex 2 Y-coordinate {m}
    5.750000000000,          !- Vertex 2 Z-coordinate {m}
    6.025000000000,          !- Vertex 3 X-coordinate {m}
    3.600000000000,          !- Vertex 3 Y-coordinate {m}
    5.750000000000,          !- Vertex 3 Z-coordinate {m}
    6.025000000000,          !- Vertex 4 X-coordinate {m}
    3.600000000000,          !- Vertex 4 Y-coordinate {m}
    7.800000000000;          !- Vertex 4 Z-coordinate {m}

FenestrationSurface:Detailed,
    P3_W14 (WC),             !- Name
    Window,                  !- Surface Type
    Exterior Window,         !- Construction Name
    79C615,                  !- Building Surface Name
    ,                        !- Outside Boundary Condition Object
    ,                        !- View Factor to Ground
    ,                        !- Frame and Divider Name
    ,                        !- Multiplier
    4,                       !- Number of Vertices
    15.975017816192,         !- Vertex 1 X-coordinate {m}
    0.950000000000,          !- Vertex 1 Y-coordinate {m}
    7.802669486705,          !- Vertex 1 Z-coordinate {m}
    15.971820644442,         !- Vertex 2 X-coordinate {m}
    0.950000000000,          !- Vertex 2 Y-coordinate {m}
    7.052703563600,          !- Vertex 2 Z-coordinate {m}
    16.971705803236,         !- Vertex 3 X-coordinate {m}
    0.950000000000,          !- Vertex 3 Y-coordinate {m}
    7.056263089003,          !- Vertex 3 Z-coordinate {m}
    16.974902974986,         !- Vertex 4 X-coordinate {m}
    0.950000000000,          !- Vertex 4 Y-coordinate {m}
    7.806229012108;          !- Vertex 4 Z-coordinate {m}

FenestrationSurface:Detailed,
    P3_W15 (Kitchen),        !- Name
    Window,                  !- Surface Type
    Exterior Window,         !- Construction Name
    D82DC0,                  !- Building Surface Name
    ,                        !- Outside Boundary Condition Object
    ,                        !- View Factor to Ground
    ,                        !- Frame and Divider Name
    ,                        !- Multiplier
    4,                       !- Number of Vertices
    15.800000000000,         !- Vertex 1 X-coordinate {m}
    0.199796947000,          !- Vertex 1 Y-coordinate {m}
    7.806369408884,          !- Vertex 1 Z-coordinate {m}
    15.800000000000,         !- Vertex 2 X-coordinate {m}
    0.199796947000,          !- Vertex 2 Y-coordinate {m}
    6.806369408884,          !- Vertex 2 Z-coordinate {m}
    15.800000000000,         !- Vertex 3 X-coordinate {m}
    0.750115238866,          !- Vertex 3 Y-coordinate {m}
    6.795200573657,          !- Vertex 3 Z-coordinate {m}
    15.800000000000,         !- Vertex 4 X-coordinate {m}
    0.750115238866,          !- Vertex 4 Y-coordinate {m}
    7.795200573657;          !- Vertex 4 Z-coordinate {m}

FenestrationSurface:Detailed,
    P3_W11,                  !- Name
    Window,                  !- Surface Type
    Exterior Window,         !- Construction Name
    7B53F9,                  !- Building Surface Name
    ,                        !- Outside Boundary Condition Object
    ,                        !- View Factor to Ground
    ,                        !- Frame and Divider Name
    ,                        !- Multiplier
    4,                       !- Number of Vertices
    16.374622712237,         !- Vertex 1 X-coordinate {m}
    6.750000000000,          !- Vertex 1 Y-coordinate {m}
    7.811485136957,          !- Vertex 1 Z-coordinate {m}
    16.374622712237,         !- Vertex 2 X-coordinate {m}
    6.750000000000,          !- Vertex 2 Y-coordinate {m}
    6.811485136957,          !- Vertex 2 Z-coordinate {m}
    14.825026037809,         !- Vertex 3 X-coordinate {m}
    6.750000000000,          !- Vertex 3 Y-coordinate {m}
    6.803018700894,          !- Vertex 3 Z-coordinate {m}
    14.825026037809,         !- Vertex 4 X-coordinate {m}
    6.750000000000,          !- Vertex 4 Y-coordinate {m}
    7.803018700894;          !- Vertex 4 Z-coordinate {m}

FenestrationSurface:Detailed,
    P3_W12,                  !- Name
    Window,                  !- Surface Type
    Exterior Window,         !- Construction Name
    7B53F9,                  !- Building Surface Name
    ,                        !- Outside Boundary Condition Object
    ,                        !- View Factor to Ground
    ,                        !- Frame and Divider Name
    ,                        !- Multiplier
    4,                       !- Number of Vertices
    13.624950344624,         !- Vertex 1 X-coordinate {m}
    6.750000000000,          !- Vertex 1 Y-coordinate {m}
    7.795831437167,          !- Vertex 1 Z-coordinate {m}
    13.624950344624,         !- Vertex 2 X-coordinate {m}
    6.750000000000,          !- Vertex 2 Y-coordinate {m}
    6.795831437167,          !- Vertex 2 Z-coordinate {m}
    12.075002314862,         !- Vertex 3 X-coordinate {m}
    6.750000000000,          !- Vertex 3 Y-coordinate {m}
    6.799099890851,          !- Vertex 3 Z-coordinate {m}
    12.075002314862,         !- Vertex 4 X-coordinate {m}
    6.750000000000,          !- Vertex 4 Y-coordinate {m}
    7.799099890851;          !- Vertex 4 Z-coordinate {m}

FenestrationSurface:Detailed,
    P3_W13 (Door),           !- Name
    Window,                  !- Surface Type
    Exterior Window,         !- Construction Name
    45EBDE,                  !- Building Surface Name
    ,                        !- Outside Boundary Condition Object
    ,                        !- View Factor to Ground
    ,                        !- Frame and Divider Name
    ,                        !- Multiplier
    4,                       !- Number of Vertices
    11.075000000000,         !- Vertex 1 X-coordinate {m}
    3.600000000000,          !- Vertex 1 Y-coordinate {m}
    7.800000000000,          !- Vertex 1 Z-coordinate {m}
    11.075000000000,         !- Vertex 2 X-coordinate {m}
    3.600000000000,          !- Vertex 2 Y-coordinate {m}
    5.750000000000,          !- Vertex 2 Z-coordinate {m}
    9.875000000000,          !- Vertex 3 X-coordinate {m}
    3.600000000000,          !- Vertex 3 Y-coordinate {m}
    5.750000000000,          !- Vertex 3 Z-coordinate {m}
    9.875000000000,          !- Vertex 4 X-coordinate {m}
    3.600000000000,          !- Vertex 4 Y-coordinate {m}
    7.800000000000;          !- Vertex 4 Z-coordinate {m}

FenestrationSurface:Detailed,
    P3_W04 (WC),             !- Name
    Window,                  !- Surface Type
    Exterior Window,         !- Construction Name
    B27677,                  !- Building Surface Name
    ,                        !- Outside Boundary Condition Object
    ,                        !- View Factor to Ground
    ,                        !- Frame and Divider Name
    ,                        !- Multiplier
    4,                       !- Number of Vertices
    1.174943055996,          !- Vertex 1 X-coordinate {m}
    -0.950000000000,         !- Vertex 1 Y-coordinate {m}
    7.795227751175,          !- Vertex 1 Z-coordinate {m}
    1.172354053991,          !- Vertex 2 X-coordinate {m}
    -0.950000000000,         !- Vertex 2 Y-coordinate {m}
    7.045250095944,          !- Vertex 2 Z-coordinate {m}
    0.172532085488,          !- Vertex 3 X-coordinate {m}
    -0.950000000000,         !- Vertex 3 Y-coordinate {m}
    7.056980816964,          !- Vertex 3 Z-coordinate {m}
    0.175121087494,          !- Vertex 4 X-coordinate {m}
    -0.950000000000,         !- Vertex 4 Y-coordinate {m}
    7.806958472195;          !- Vertex 4 Z-coordinate {m}

FenestrationSurface:Detailed,
    P3_W05 (Kitchen),        !- Name
    Window,                  !- Surface Type
    Exterior Window,         !- Construction Name
    38E156,                  !- Building Surface Name
    ,                        !- Outside Boundary Condition Object
    ,                        !- View Factor to Ground
    ,                        !- Frame and Divider Name
    ,                        !- Multiplier
    4,                       !- Number of Vertices
    1.350000000000,          !- Vertex 1 X-coordinate {m}
    -0.199677588201,         !- Vertex 1 Y-coordinate {m}
    7.791976384209,          !- Vertex 1 Z-coordinate {m}
    1.350000000000,          !- Vertex 2 X-coordinate {m}
    -0.199677588201,         !- Vertex 2 Y-coordinate {m}
    6.791976384209,          !- Vertex 2 Z-coordinate {m}
    1.350000000000,          !- Vertex 3 X-coordinate {m}
    -0.750052959934,         !- Vertex 3 Y-coordinate {m}
    6.796745897660,          !- Vertex 3 Z-coordinate {m}
    1.350000000000,          !- Vertex 4 X-coordinate {m}
    -0.750052959934,         !- Vertex 4 Y-coordinate {m}
    7.796745897660;          !- Vertex 4 Z-coordinate {m}

FenestrationSurface:Detailed,
    P3_W01,                  !- Name
    Window,                  !- Surface Type
    Exterior Window,         !- Construction Name
    E96152,                  !- Building Surface Name
    ,                        !- Outside Boundary Condition Object
    ,                        !- View Factor to Ground
    ,                        !- Frame and Divider Name
    ,                        !- Multiplier
    4,                       !- Number of Vertices
    0.775002108892,          !- Vertex 1 X-coordinate {m}
    -6.750000000000,         !- Vertex 1 Y-coordinate {m}
    7.799140867924,          !- Vertex 1 Z-coordinate {m}
    0.775002108892,          !- Vertex 2 X-coordinate {m}
    -6.750000000000,         !- Vertex 2 Y-coordinate {m}
    6.799140867924,          !- Vertex 2 Z-coordinate {m}
    2.324951871339,          !- Vertex 3 X-coordinate {m}
    -6.750000000000,         !- Vertex 3 Y-coordinate {m}
    6.795896012318,          !- Vertex 3 Z-coordinate {m}
    2.324951871339,          !- Vertex 4 X-coordinate {m}
    -6.750000000000,         !- Vertex 4 Y-coordinate {m}
    7.795896012318;          !- Vertex 4 Z-coordinate {m}

FenestrationSurface:Detailed,
    P3_W03 (Door),           !- Name
    Window,                  !- Surface Type
    Exterior Window,         !- Construction Name
    FC5CC3,                  !- Building Surface Name
    ,                        !- Outside Boundary Condition Object
    ,                        !- View Factor to Ground
    ,                        !- Frame and Divider Name
    ,                        !- Multiplier
    4,                       !- Number of Vertices
    6.075000000000,          !- Vertex 1 X-coordinate {m}
    -3.600000000000,         !- Vertex 1 Y-coordinate {m}
    7.800000000000,          !- Vertex 1 Z-coordinate {m}
    6.075000000000,          !- Vertex 2 X-coordinate {m}
    -3.600000000000,         !- Vertex 2 Y-coordinate {m}
    5.750000000000,          !- Vertex 2 Z-coordinate {m}
    7.275000000000,          !- Vertex 3 X-coordinate {m}
    -3.600000000000,         !- Vertex 3 Y-coordinate {m}
    5.750000000000,          !- Vertex 3 Z-coordinate {m}
    7.275000000000,          !- Vertex 4 X-coordinate {m}
    -3.600000000000,         !- Vertex 4 Y-coordinate {m}
    7.800000000000;          !- Vertex 4 Z-coordinate {m}

FenestrationSurface:Detailed,
    P3_W02,                  !- Name
    Window,                  !- Surface Type
    Exterior Window,         !- Construction Name
    E96152,                  !- Building Surface Name
    ,                        !- Outside Boundary Condition Object
    ,                        !- View Factor to Ground
    ,                        !- Frame and Divider Name
    ,                        !- Multiplier
    4,                       !- Number of Vertices
    3.525003268075,          !- Vertex 1 X-coordinate {m}
    -6.750000000000,         !- Vertex 1 Y-coordinate {m}
    7.798930506912,          !- Vertex 1 Z-coordinate {m}
    3.525003268075,          !- Vertex 2 X-coordinate {m}
    -6.750000000000,         !- Vertex 2 Y-coordinate {m}
    6.798930506912,          !- Vertex 2 Z-coordinate {m}
    5.074990393136,          !- Vertex 3 X-coordinate {m}
    -6.750000000000,         !- Vertex 3 Y-coordinate {m}
    6.798166339680,          !- Vertex 3 Z-coordinate {m}
    5.074990393136,          !- Vertex 4 X-coordinate {m}
    -6.750000000000,         !- Vertex 4 Y-coordinate {m}
    7.798166339680;          !- Vertex 4 Z-coordinate {m}

FenestrationSurface:Detailed,
    P4_W14 (WC),             !- Name
    Window,                  !- Surface Type
    Exterior Window,         !- Construction Name
    55D493,                  !- Building Surface Name
    ,                        !- Outside Boundary Condition Object
    ,                        !- View Factor to Ground
    ,                        !- Frame and Divider Name
    ,                        !- Multiplier
    4,                       !- Number of Vertices
    15.975017816192,         !- Vertex 1 X-coordinate {m}
    0.950000000000,          !- Vertex 1 Y-coordinate {m}
    10.652669486705,         !- Vertex 1 Z-coordinate {m}
    15.971820644442,         !- Vertex 2 X-coordinate {m}
    0.950000000000,          !- Vertex 2 Y-coordinate {m}
    9.902703563600,          !- Vertex 2 Z-coordinate {m}
    16.971705803236,         !- Vertex 3 X-coordinate {m}
    0.950000000000,          !- Vertex 3 Y-coordinate {m}
    9.906263089003,          !- Vertex 3 Z-coordinate {m}
    16.974902974986,         !- Vertex 4 X-coordinate {m}
    0.950000000000,          !- Vertex 4 Y-coordinate {m}
    10.656229012108;         !- Vertex 4 Z-coordinate {m}

FenestrationSurface:Detailed,
    P4_W15 (Kitchen),        !- Name
    Window,                  !- Surface Type
    Exterior Window,         !- Construction Name
    1D99A8,                  !- Building Surface Name
    ,                        !- Outside Boundary Condition Object
    ,                        !- View Factor to Ground
    ,                        !- Frame and Divider Name
    ,                        !- Multiplier
    4,                       !- Number of Vertices
    15.800000000000,         !- Vertex 1 X-coordinate {m}
    0.199796947000,          !- Vertex 1 Y-coordinate {m}
    10.656369408884,         !- Vertex 1 Z-coordinate {m}
    15.800000000000,         !- Vertex 2 X-coordinate {m}
    0.199796947000,          !- Vertex 2 Y-coordinate {m}
    9.656369408884,          !- Vertex 2 Z-coordinate {m}
    15.800000000000,         !- Vertex 3 X-coordinate {m}
    0.750115238866,          !- Vertex 3 Y-coordinate {m}
    9.645200573657,          !- Vertex 3 Z-coordinate {m}
    15.800000000000,         !- Vertex 4 X-coordinate {m}
    0.750115238866,          !- Vertex 4 Y-coordinate {m}
    10.645200573657;         !- Vertex 4 Z-coordinate {m}

FenestrationSurface:Detailed,
    P4_W11,                  !- Name
    Window,                  !- Surface Type
    Exterior Window,         !- Construction Name
    CB13E6,                  !- Building Surface Name
    ,                        !- Outside Boundary Condition Object
    ,                        !- View Factor to Ground
    ,                        !- Frame and Divider Name
    ,                        !- Multiplier
    4,                       !- Number of Vertices
    16.374622712237,         !- Vertex 1 X-coordinate {m}
    6.750000000000,          !- Vertex 1 Y-coordinate {m}
    10.661485136957,         !- Vertex 1 Z-coordinate {m}
    16.374622712237,         !- Vertex 2 X-coordinate {m}
    6.750000000000,          !- Vertex 2 Y-coordinate {m}
    9.661485136957,          !- Vertex 2 Z-coordinate {m}
    14.825026037809,         !- Vertex 3 X-coordinate {m}
    6.750000000000,          !- Vertex 3 Y-coordinate {m}
    9.653018700894,          !- Vertex 3 Z-coordinate {m}
    14.825026037809,         !- Vertex 4 X-coordinate {m}
    6.750000000000,          !- Vertex 4 Y-coordinate {m}
    10.653018700894;         !- Vertex 4 Z-coordinate {m}

FenestrationSurface:Detailed,
    P4_W12,                  !- Name
    Window,                  !- Surface Type
    Exterior Window,         !- Construction Name
    CB13E6,                  !- Building Surface Name
    ,                        !- Outside Boundary Condition Object
    ,                        !- View Factor to Ground
    ,                        !- Frame and Divider Name
    ,                        !- Multiplier
    4,                       !- Number of Vertices
    13.624950344624,         !- Vertex 1 X-coordinate {m}
    6.750000000000,          !- Vertex 1 Y-coordinate {m}
    10.645831437167,         !- Vertex 1 Z-coordinate {m}
    13.624950344624,         !- Vertex 2 X-coordinate {m}
    6.750000000000,          !- Vertex 2 Y-coordinate {m}
    9.645831437167,          !- Vertex 2 Z-coordinate {m}
    12.075002314862,         !- Vertex 3 X-coordinate {m}
    6.750000000000,          !- Vertex 3 Y-coordinate {m}
    9.649099890851,          !- Vertex 3 Z-coordinate {m}
    12.075002314862,         !- Vertex 4 X-coordinate {m}
    6.750000000000,          !- Vertex 4 Y-coordinate {m}
    10.649099890851;         !- Vertex 4 Z-coordinate {m}

FenestrationSurface:Detailed,
    P4_W13 (Door),           !- Name
    Window,                  !- Surface Type
    Exterior Window,         !- Construction Name
    75AAF3,                  !- Building Surface Name
    ,                        !- Outside Boundary Condition Object
    ,                        !- View Factor to Ground
    ,                        !- Frame and Divider Name
    ,                        !- Multiplier
    4,                       !- Number of Vertices
    11.075000000000,         !- Vertex 1 X-coordinate {m}
    3.600000000000,          !- Vertex 1 Y-coordinate {m}
    10.650000000000,         !- Vertex 1 Z-coordinate {m}
    11.075000000000,         !- Vertex 2 X-coordinate {m}
    3.600000000000,          !- Vertex 2 Y-coordinate {m}
    8.600000000000,          !- Vertex 2 Z-coordinate {m}
    9.875000000000,          !- Vertex 3 X-coordinate {m}
    3.600000000000,          !- Vertex 3 Y-coordinate {m}
    8.600000000000,          !- Vertex 3 Z-coordinate {m}
    9.875000000000,          !- Vertex 4 X-coordinate {m}
    3.600000000000,          !- Vertex 4 Y-coordinate {m}
    10.650000000000;         !- Vertex 4 Z-coordinate {m}

FenestrationSurface:Detailed,
    P4_W04 (WC),             !- Name
    Window,                  !- Surface Type
    Exterior Window,         !- Construction Name
    794D10,                  !- Building Surface Name
    ,                        !- Outside Boundary Condition Object
    ,                        !- View Factor to Ground
    ,                        !- Frame and Divider Name
    ,                        !- Multiplier
    4,                       !- Number of Vertices
    1.174943055996,          !- Vertex 1 X-coordinate {m}
    -0.950000000000,         !- Vertex 1 Y-coordinate {m}
    10.645227751175,         !- Vertex 1 Z-coordinate {m}
    1.172354053991,          !- Vertex 2 X-coordinate {m}
    -0.950000000000,         !- Vertex 2 Y-coordinate {m}
    9.895250095944,          !- Vertex 2 Z-coordinate {m}
    0.172532085488,          !- Vertex 3 X-coordinate {m}
    -0.950000000000,         !- Vertex 3 Y-coordinate {m}
    9.906980816964,          !- Vertex 3 Z-coordinate {m}
    0.175121087494,          !- Vertex 4 X-coordinate {m}
    -0.950000000000,         !- Vertex 4 Y-coordinate {m}
    10.656958472195;         !- Vertex 4 Z-coordinate {m}

FenestrationSurface:Detailed,
    P4_W05 (Kitchen),        !- Name
    Window,                  !- Surface Type
    Exterior Window,         !- Construction Name
    D9AE9F,                  !- Building Surface Name
    ,                        !- Outside Boundary Condition Object
    ,                        !- View Factor to Ground
    ,                        !- Frame and Divider Name
    ,                        !- Multiplier
    4,                       !- Number of Vertices
    1.350000000000,          !- Vertex 1 X-coordinate {m}
    -0.199677588201,         !- Vertex 1 Y-coordinate {m}
    10.641976384209,         !- Vertex 1 Z-coordinate {m}
    1.350000000000,          !- Vertex 2 X-coordinate {m}
    -0.199677588201,         !- Vertex 2 Y-coordinate {m}
    9.641976384209,          !- Vertex 2 Z-coordinate {m}
    1.350000000000,          !- Vertex 3 X-coordinate {m}
    -0.750052959934,         !- Vertex 3 Y-coordinate {m}
    9.646745897660,          !- Vertex 3 Z-coordinate {m}
    1.350000000000,          !- Vertex 4 X-coordinate {m}
    -0.750052959934,         !- Vertex 4 Y-coordinate {m}
    10.646745897660;         !- Vertex 4 Z-coordinate {m}

FenestrationSurface:Detailed,
    P4_W01,                  !- Name
    Window,                  !- Surface Type
    Exterior Window,         !- Construction Name
    1CEE0F,                  !- Building Surface Name
    ,                        !- Outside Boundary Condition Object
    ,                        !- View Factor to Ground
    ,                        !- Frame and Divider Name
    ,                        !- Multiplier
    4,                       !- Number of Vertices
    0.775002108892,          !- Vertex 1 X-coordinate {m}
    -6.750000000000,         !- Vertex 1 Y-coordinate {m}
    10.649140867924,         !- Vertex 1 Z-coordinate {m}
    0.775002108892,          !- Vertex 2 X-coordinate {m}
    -6.750000000000,         !- Vertex 2 Y-coordinate {m}
    9.649140867924,          !- Vertex 2 Z-coordinate {m}
    2.324951871339,          !- Vertex 3 X-coordinate {m}
    -6.750000000000,         !- Vertex 3 Y-coordinate {m}
    9.645896012318,          !- Vertex 3 Z-coordinate {m}
    2.324951871339,          !- Vertex 4 X-coordinate {m}
    -6.750000000000,         !- Vertex 4 Y-coordinate {m}
    10.645896012318;         !- Vertex 4 Z-coordinate {m}

FenestrationSurface:Detailed,
    P4_W03 (Door),           !- Name
    Window,                  !- Surface Type
    Exterior Window,         !- Construction Name
    A959D0,                  !- Building Surface Name
    ,                        !- Outside Boundary Condition Object
    ,                        !- View Factor to Ground
    ,                        !- Frame and Divider Name
    ,                        !- Multiplier
    4,                       !- Number of Vertices
    6.075000000000,          !- Vertex 1 X-coordinate {m}
    -3.600000000000,         !- Vertex 1 Y-coordinate {m}
    10.650000000000,         !- Vertex 1 Z-coordinate {m}
    6.075000000000,          !- Vertex 2 X-coordinate {m}
    -3.600000000000,         !- Vertex 2 Y-coordinate {m}
    8.600000000000,          !- Vertex 2 Z-coordinate {m}
    7.275000000000,          !- Vertex 3 X-coordinate {m}
    -3.600000000000,         !- Vertex 3 Y-coordinate {m}
    8.600000000000,          !- Vertex 3 Z-coordinate {m}
    7.275000000000,          !- Vertex 4 X-coordinate {m}
    -3.600000000000,         !- Vertex 4 Y-coordinate {m}
    10.650000000000;         !- Vertex 4 Z-coordinate {m}

FenestrationSurface:Detailed,
    P4_W02,                  !- Name
    Window,                  !- Surface Type
    Exterior Window,         !- Construction Name
    1CEE0F,                  !- Building Surface Name
    ,                        !- Outside Boundary Condition Object
    ,                        !- View Factor to Ground
    ,                        !- Frame and Divider Name
    ,                        !- Multiplier
    4,                       !- Number of Vertices
    3.525003268075,          !- Vertex 1 X-coordinate {m}
    -6.750000000000,         !- Vertex 1 Y-coordinate {m}
    10.648930506912,         !- Vertex 1 Z-coordinate {m}
    3.525003268075,          !- Vertex 2 X-coordinate {m}
    -6.750000000000,         !- Vertex 2 Y-coordinate {m}
    9.648930506912,          !- Vertex 2 Z-coordinate {m}
    5.074990393136,          !- Vertex 3 X-coordinate {m}
    -6.750000000000,         !- Vertex 3 Y-coordinate {m}
    9.648166339680,          !- Vertex 3 Z-coordinate {m}
    5.074990393136,          !- Vertex 4 X-coordinate {m}
    -6.750000000000,         !- Vertex 4 Y-coordinate {m}
    10.648166339680;         !- Vertex 4 Z-coordinate {m}

FenestrationSurface:Detailed,
    P4_W09 (WC),             !- Name
    Window,                  !- Surface Type
    Exterior Window,         !- Construction Name
    D6FF2C,                  !- Building Surface Name
    ,                        !- Outside Boundary Condition Object
    ,                        !- View Factor to Ground
    ,                        !- Frame and Divider Name
    ,                        !- Multiplier
    4,                       !- Number of Vertices
    0.175010184979,          !- Vertex 1 X-coordinate {m}
    0.950000000000,          !- Vertex 1 Y-coordinate {m}
    10.652018387440,         !- Vertex 1 Z-coordinate {m}
    0.175010184979,          !- Vertex 2 X-coordinate {m}
    0.950000000000,          !- Vertex 2 Y-coordinate {m}
    9.902018387440,          !- Vertex 2 Z-coordinate {m}
    1.174983866385,          !- Vertex 3 X-coordinate {m}
    0.950000000000,          !- Vertex 3 Y-coordinate {m}
    9.902540312147,          !- Vertex 3 Z-coordinate {m}
    1.174983866385,          !- Vertex 4 X-coordinate {m}
    0.950000000000,          !- Vertex 4 Y-coordinate {m}
    10.652540312147;         !- Vertex 4 Z-coordinate {m}

FenestrationSurface:Detailed,
    P4_W10 (Kitchen),        !- Name
    Window,                  !- Surface Type
    Exterior Window,         !- Construction Name
    967C92,                  !- Building Surface Name
    ,                        !- Outside Boundary Condition Object
    ,                        !- View Factor to Ground
    ,                        !- Frame and Divider Name
    ,                        !- Multiplier
    4,                       !- Number of Vertices
    1.350000000000,          !- Vertex 1 X-coordinate {m}
    0.750009468060,          !- Vertex 1 Y-coordinate {m}
    10.648623946811,         !- Vertex 1 Z-coordinate {m}
    1.350000000000,          !- Vertex 2 X-coordinate {m}
    0.750009468060,          !- Vertex 2 Y-coordinate {m}
    9.648623946811,          !- Vertex 2 Z-coordinate {m}
    1.350000000000,          !- Vertex 3 X-coordinate {m}
    0.198709762549,          !- Vertex 3 Y-coordinate {m}
    9.633988042668,          !- Vertex 3 Z-coordinate {m}
    1.350000000000,          !- Vertex 4 X-coordinate {m}
    0.198709762549,          !- Vertex 4 Y-coordinate {m}
    10.633988042668;         !- Vertex 4 Z-coordinate {m}

FenestrationSurface:Detailed,
    P4_W06,                  !- Name
    Window,                  !- Surface Type
    Exterior Window,         !- Construction Name
    840095,                  !- Building Surface Name
    ,                        !- Outside Boundary Condition Object
    ,                        !- View Factor to Ground
    ,                        !- Frame and Divider Name
    ,                        !- Multiplier
    4,                       !- Number of Vertices
    2.324997536713,          !- Vertex 1 X-coordinate {m}
    6.750000000000,          !- Vertex 1 Y-coordinate {m}
    10.649071482689,         !- Vertex 1 Z-coordinate {m}
    2.324997536713,          !- Vertex 2 X-coordinate {m}
    6.750000000000,          !- Vertex 2 Y-coordinate {m}
    9.649071482689,          !- Vertex 2 Z-coordinate {m}
    0.775000121538,          !- Vertex 3 X-coordinate {m}
    6.750000000000,          !- Vertex 3 Y-coordinate {m}
    9.649793752053,          !- Vertex 3 Z-coordinate {m}
    0.775000121538,          !- Vertex 4 X-coordinate {m}
    6.750000000000,          !- Vertex 4 Y-coordinate {m}
    10.649793752053;         !- Vertex 4 Z-coordinate {m}

FenestrationSurface:Detailed,
    P4_W07,                  !- Name
    Window,                  !- Surface Type
    Exterior Window,         !- Construction Name
    840095,                  !- Building Surface Name
    ,                        !- Outside Boundary Condition Object
    ,                        !- View Factor to Ground
    ,                        !- Frame and Divider Name
    ,                        !- Multiplier
    4,                       !- Number of Vertices
    5.074870082628,          !- Vertex 1 X-coordinate {m}
    6.750000000000,          !- Vertex 1 Y-coordinate {m}
    10.643258026874,         !- Vertex 1 Z-coordinate {m}
    5.074870082628,          !- Vertex 2 X-coordinate {m}
    6.750000000000,          !- Vertex 2 Y-coordinate {m}
    9.643258026874,          !- Vertex 2 Z-coordinate {m}
    3.525002331787,          !- Vertex 3 X-coordinate {m}
    6.750000000000,          !- Vertex 3 Y-coordinate {m}
    9.649096606445,          !- Vertex 3 Z-coordinate {m}
    3.525002331787,          !- Vertex 4 X-coordinate {m}
    6.750000000000,          !- Vertex 4 Y-coordinate {m}
    10.649096606445;         !- Vertex 4 Z-coordinate {m}

FenestrationSurface:Detailed,
    P4_W08 (Door),           !- Name
    Window,                  !- Surface Type
    Exterior Window,         !- Construction Name
    D6A0DF,                  !- Building Surface Name
    ,                        !- Outside Boundary Condition Object
    ,                        !- View Factor to Ground
    ,                        !- Frame and Divider Name
    ,                        !- Multiplier
    4,                       !- Number of Vertices
    7.225000000000,          !- Vertex 1 X-coordinate {m}
    3.600000000000,          !- Vertex 1 Y-coordinate {m}
    10.650000000000,         !- Vertex 1 Z-coordinate {m}
    7.225000000000,          !- Vertex 2 X-coordinate {m}
    3.600000000000,          !- Vertex 2 Y-coordinate {m}
    8.600000000000,          !- Vertex 2 Z-coordinate {m}
    6.025000000000,          !- Vertex 3 X-coordinate {m}
    3.600000000000,          !- Vertex 3 Y-coordinate {m}
    8.600000000000,          !- Vertex 3 Z-coordinate {m}
    6.025000000000,          !- Vertex 4 X-coordinate {m}
    3.600000000000,          !- Vertex 4 Y-coordinate {m}
    10.650000000000;         !- Vertex 4 Z-coordinate {m}

FenestrationSurface:Detailed,
    P4_W19 (WC),             !- Name
    Window,                  !- Surface Type
    Exterior Window,         !- Construction Name
    7D5F0A,                  !- Building Surface Name
    ,                        !- Outside Boundary Condition Object
    ,                        !- View Factor to Ground
    ,                        !- Frame and Divider Name
    ,                        !- Multiplier
    4,                       !- Number of Vertices
    16.974957836413,         !- Vertex 1 X-coordinate {m}
    -0.950000000000,         !- Vertex 1 Y-coordinate {m}
    10.645893461676,         !- Vertex 1 Z-coordinate {m}
    16.974957836413,         !- Vertex 2 X-coordinate {m}
    -0.950000000000,         !- Vertex 2 Y-coordinate {m}
    9.895893461676,          !- Vertex 2 Z-coordinate {m}
    15.975187987729,         !- Vertex 3 X-coordinate {m}
    -0.950000000000,         !- Vertex 3 Y-coordinate {m}
    9.908669472430,          !- Vertex 3 Z-coordinate {m}
    15.975187987729,         !- Vertex 4 X-coordinate {m}
    -0.950000000000,         !- Vertex 4 Y-coordinate {m}
    10.658669472430;         !- Vertex 4 Z-coordinate {m}

FenestrationSurface:Detailed,
    P4_W20 (Kitchen),        !- Name
    Window,                  !- Surface Type
    Exterior Window,         !- Construction Name
    61E410,                  !- Building Surface Name
    ,                        !- Outside Boundary Condition Object
    ,                        !- View Factor to Ground
    ,                        !- Frame and Divider Name
    ,                        !- Multiplier
    4,                       !- Number of Vertices
    15.800000000000,         !- Vertex 1 X-coordinate {m}
    -0.750004324765,         !- Vertex 1 Y-coordinate {m}
    10.650930018436,         !- Vertex 1 Z-coordinate {m}
    15.800000000000,         !- Vertex 2 X-coordinate {m}
    -0.750004324765,         !- Vertex 2 Y-coordinate {m}
    9.650930018436,          !- Vertex 2 Z-coordinate {m}
    15.800000000000,         !- Vertex 3 X-coordinate {m}
    -0.199988794135,         !- Vertex 3 Y-coordinate {m}
    9.651497012867,          !- Vertex 3 Z-coordinate {m}
    15.800000000000,         !- Vertex 4 X-coordinate {m}
    -0.199988794135,         !- Vertex 4 Y-coordinate {m}
    10.651497012867;         !- Vertex 4 Z-coordinate {m}

FenestrationSurface:Detailed,
    P4_W16,                  !- Name
    Window,                  !- Surface Type
    Exterior Window,         !- Construction Name
    6A5F55,                  !- Building Surface Name
    ,                        !- Outside Boundary Condition Object
    ,                        !- View Factor to Ground
    ,                        !- Frame and Divider Name
    ,                        !- Multiplier
    4,                       !- Number of Vertices
    14.825000773784,         !- Vertex 1 X-coordinate {m}
    -6.750000000000,         !- Vertex 1 Y-coordinate {m}
    10.649479592702,         !- Vertex 1 Z-coordinate {m}
    14.825000773784,         !- Vertex 2 X-coordinate {m}
    -6.750000000000,         !- Vertex 2 Y-coordinate {m}
    9.649479592702,          !- Vertex 2 Z-coordinate {m}
    16.374990104405,         !- Vertex 3 X-coordinate {m}
    -6.750000000000,         !- Vertex 3 Y-coordinate {m}
    9.648138989477,          !- Vertex 3 Z-coordinate {m}
    16.374990104405,         !- Vertex 4 X-coordinate {m}
    -6.750000000000,         !- Vertex 4 Y-coordinate {m}
    10.648138989477;         !- Vertex 4 Z-coordinate {m}

FenestrationSurface:Detailed,
    P4_W17,                  !- Name
    Window,                  !- Surface Type
    Exterior Window,         !- Construction Name
    6A5F55,                  !- Building Surface Name
    ,                        !- Outside Boundary Condition Object
    ,                        !- View Factor to Ground
    ,                        !- Frame and Divider Name
    ,                        !- Multiplier
    4,                       !- Number of Vertices
    12.075000006439,         !- Vertex 1 X-coordinate {m}
    -6.750000000000,         !- Vertex 1 Y-coordinate {m}
    10.649952527930,         !- Vertex 1 Z-coordinate {m}
    12.075000006439,         !- Vertex 2 X-coordinate {m}
    -6.750000000000,         !- Vertex 2 Y-coordinate {m}
    9.649952527930,          !- Vertex 2 Z-coordinate {m}
    13.624970130996,         !- Vertex 3 X-coordinate {m}
    -6.750000000000,         !- Vertex 3 Y-coordinate {m}
    9.653233150038,          !- Vertex 3 Z-coordinate {m}
    13.624970130996,         !- Vertex 4 X-coordinate {m}
    -6.750000000000,         !- Vertex 4 Y-coordinate {m}
    10.653233150038;         !- Vertex 4 Z-coordinate {m}

FenestrationSurface:Detailed,
    P4_W18 (Door),           !- Name
    Window,                  !- Surface Type
    Exterior Window,         !- Construction Name
    D8548A,                  !- Building Surface Name
    ,                        !- Outside Boundary Condition Object
    ,                        !- View Factor to Ground
    ,                        !- Frame and Divider Name
    ,                        !- Multiplier
    4,                       !- Number of Vertices
    9.925000000000,          !- Vertex 1 X-coordinate {m}
    -3.600000000000,         !- Vertex 1 Y-coordinate {m}
    10.650000000000,         !- Vertex 1 Z-coordinate {m}
    9.925000000000,          !- Vertex 2 X-coordinate {m}
    -3.600000000000,         !- Vertex 2 Y-coordinate {m}
    8.600000000000,          !- Vertex 2 Z-coordinate {m}
    11.125000000000,         !- Vertex 3 X-coordinate {m}
    -3.600000000000,         !- Vertex 3 Y-coordinate {m}
    8.600000000000,          !- Vertex 3 Z-coordinate {m}
    11.125000000000,         !- Vertex 4 X-coordinate {m}
    -3.600000000000,         !- Vertex 4 Y-coordinate {m}
    10.650000000000;         !- Vertex 4 Z-coordinate {m}

FenestrationSurface:Detailed,
    P5_W14 (WC),             !- Name
    Window,                  !- Surface Type
    Exterior Window,         !- Construction Name
    BD89DC,                  !- Building Surface Name
    ,                        !- Outside Boundary Condition Object
    ,                        !- View Factor to Ground
    ,                        !- Frame and Divider Name
    ,                        !- Multiplier
    4,                       !- Number of Vertices
    15.975017816192,         !- Vertex 1 X-coordinate {m}
    0.950000000000,          !- Vertex 1 Y-coordinate {m}
    13.502669486705,         !- Vertex 1 Z-coordinate {m}
    15.971820644442,         !- Vertex 2 X-coordinate {m}
    0.950000000000,          !- Vertex 2 Y-coordinate {m}
    12.752703563600,         !- Vertex 2 Z-coordinate {m}
    16.971705803236,         !- Vertex 3 X-coordinate {m}
    0.950000000000,          !- Vertex 3 Y-coordinate {m}
    12.756263089003,         !- Vertex 3 Z-coordinate {m}
    16.974902974986,         !- Vertex 4 X-coordinate {m}
    0.950000000000,          !- Vertex 4 Y-coordinate {m}
    13.506229012108;         !- Vertex 4 Z-coordinate {m}

FenestrationSurface:Detailed,
    P5_W15 (Kitchen),        !- Name
    Window,                  !- Surface Type
    Exterior Window,         !- Construction Name
    940CAA,                  !- Building Surface Name
    ,                        !- Outside Boundary Condition Object
    ,                        !- View Factor to Ground
    ,                        !- Frame and Divider Name
    ,                        !- Multiplier
    4,                       !- Number of Vertices
    15.800000000000,         !- Vertex 1 X-coordinate {m}
    0.199796947000,          !- Vertex 1 Y-coordinate {m}
    13.506369408884,         !- Vertex 1 Z-coordinate {m}
    15.800000000000,         !- Vertex 2 X-coordinate {m}
    0.199796947000,          !- Vertex 2 Y-coordinate {m}
    12.506369408884,         !- Vertex 2 Z-coordinate {m}
    15.800000000000,         !- Vertex 3 X-coordinate {m}
    0.750115238866,          !- Vertex 3 Y-coordinate {m}
    12.495200573657,         !- Vertex 3 Z-coordinate {m}
    15.800000000000,         !- Vertex 4 X-coordinate {m}
    0.750115238866,          !- Vertex 4 Y-coordinate {m}
    13.495200573657;         !- Vertex 4 Z-coordinate {m}

FenestrationSurface:Detailed,
    P5_W11,                  !- Name
    Window,                  !- Surface Type
    Exterior Window,         !- Construction Name
    5C8BDC,                  !- Building Surface Name
    ,                        !- Outside Boundary Condition Object
    ,                        !- View Factor to Ground
    ,                        !- Frame and Divider Name
    ,                        !- Multiplier
    4,                       !- Number of Vertices
    16.374622712237,         !- Vertex 1 X-coordinate {m}
    6.750000000000,          !- Vertex 1 Y-coordinate {m}
    13.511485136957,         !- Vertex 1 Z-coordinate {m}
    16.374622712237,         !- Vertex 2 X-coordinate {m}
    6.750000000000,          !- Vertex 2 Y-coordinate {m}
    12.511485136957,         !- Vertex 2 Z-coordinate {m}
    14.825026037809,         !- Vertex 3 X-coordinate {m}
    6.750000000000,          !- Vertex 3 Y-coordinate {m}
    12.503018700894,         !- Vertex 3 Z-coordinate {m}
    14.825026037809,         !- Vertex 4 X-coordinate {m}
    6.750000000000,          !- Vertex 4 Y-coordinate {m}
    13.503018700894;         !- Vertex 4 Z-coordinate {m}

FenestrationSurface:Detailed,
    P5_W12,                  !- Name
    Window,                  !- Surface Type
    Exterior Window,         !- Construction Name
    5C8BDC,                  !- Building Surface Name
    ,                        !- Outside Boundary Condition Object
    ,                        !- View Factor to Ground
    ,                        !- Frame and Divider Name
    ,                        !- Multiplier
    4,                       !- Number of Vertices
    13.624950344624,         !- Vertex 1 X-coordinate {m}
    6.750000000000,          !- Vertex 1 Y-coordinate {m}
    13.495831437167,         !- Vertex 1 Z-coordinate {m}
    13.624950344624,         !- Vertex 2 X-coordinate {m}
    6.750000000000,          !- Vertex 2 Y-coordinate {m}
    12.495831437167,         !- Vertex 2 Z-coordinate {m}
    12.075002314862,         !- Vertex 3 X-coordinate {m}
    6.750000000000,          !- Vertex 3 Y-coordinate {m}
    12.499099890851,         !- Vertex 3 Z-coordinate {m}
    12.075002314862,         !- Vertex 4 X-coordinate {m}
    6.750000000000,          !- Vertex 4 Y-coordinate {m}
    13.499099890851;         !- Vertex 4 Z-coordinate {m}

FenestrationSurface:Detailed,
    P5_W13 (Door),           !- Name
    Window,                  !- Surface Type
    Exterior Window,         !- Construction Name
    DFDE75,                  !- Building Surface Name
    ,                        !- Outside Boundary Condition Object
    ,                        !- View Factor to Ground
    ,                        !- Frame and Divider Name
    ,                        !- Multiplier
    4,                       !- Number of Vertices
    11.075000000000,         !- Vertex 1 X-coordinate {m}
    3.600000000000,          !- Vertex 1 Y-coordinate {m}
    13.500000000000,         !- Vertex 1 Z-coordinate {m}
    11.075000000000,         !- Vertex 2 X-coordinate {m}
    3.600000000000,          !- Vertex 2 Y-coordinate {m}
    11.450000000000,         !- Vertex 2 Z-coordinate {m}
    9.875000000000,          !- Vertex 3 X-coordinate {m}
    3.600000000000,          !- Vertex 3 Y-coordinate {m}
    11.450000000000,         !- Vertex 3 Z-coordinate {m}
    9.875000000000,          !- Vertex 4 X-coordinate {m}
    3.600000000000,          !- Vertex 4 Y-coordinate {m}
    13.500000000000;         !- Vertex 4 Z-coordinate {m}

FenestrationSurface:Detailed,
    P5_W19 (WC),             !- Name
    Window,                  !- Surface Type
    Exterior Window,         !- Construction Name
    D21546,                  !- Building Surface Name
    ,                        !- Outside Boundary Condition Object
    ,                        !- View Factor to Ground
    ,                        !- Frame and Divider Name
    ,                        !- Multiplier
    4,                       !- Number of Vertices
    16.974957836413,         !- Vertex 1 X-coordinate {m}
    -0.950000000000,         !- Vertex 1 Y-coordinate {m}
    13.495893461676,         !- Vertex 1 Z-coordinate {m}
    16.974957836413,         !- Vertex 2 X-coordinate {m}
    -0.950000000000,         !- Vertex 2 Y-coordinate {m}
    12.745893461676,         !- Vertex 2 Z-coordinate {m}
    15.975187987729,         !- Vertex 3 X-coordinate {m}
    -0.950000000000,         !- Vertex 3 Y-coordinate {m}
    12.758669472430,         !- Vertex 3 Z-coordinate {m}
    15.975187987729,         !- Vertex 4 X-coordinate {m}
    -0.950000000000,         !- Vertex 4 Y-coordinate {m}
    13.508669472430;         !- Vertex 4 Z-coordinate {m}

FenestrationSurface:Detailed,
    P5_W20 (Kitchen),        !- Name
    Window,                  !- Surface Type
    Exterior Window,         !- Construction Name
    64499A,                  !- Building Surface Name
    ,                        !- Outside Boundary Condition Object
    ,                        !- View Factor to Ground
    ,                        !- Frame and Divider Name
    ,                        !- Multiplier
    4,                       !- Number of Vertices
    15.800000000000,         !- Vertex 1 X-coordinate {m}
    -0.750004324765,         !- Vertex 1 Y-coordinate {m}
    13.500930018436,         !- Vertex 1 Z-coordinate {m}
    15.800000000000,         !- Vertex 2 X-coordinate {m}
    -0.750004324765,         !- Vertex 2 Y-coordinate {m}
    12.500930018436,         !- Vertex 2 Z-coordinate {m}
    15.800000000000,         !- Vertex 3 X-coordinate {m}
    -0.199988794135,         !- Vertex 3 Y-coordinate {m}
    12.501497012867,         !- Vertex 3 Z-coordinate {m}
    15.800000000000,         !- Vertex 4 X-coordinate {m}
    -0.199988794135,         !- Vertex 4 Y-coordinate {m}
    13.501497012867;         !- Vertex 4 Z-coordinate {m}

FenestrationSurface:Detailed,
    P5_W16,                  !- Name
    Window,                  !- Surface Type
    Exterior Window,         !- Construction Name
    A94D49,                  !- Building Surface Name
    ,                        !- Outside Boundary Condition Object
    ,                        !- View Factor to Ground
    ,                        !- Frame and Divider Name
    ,                        !- Multiplier
    4,                       !- Number of Vertices
    14.825000773784,         !- Vertex 1 X-coordinate {m}
    -6.750000000000,         !- Vertex 1 Y-coordinate {m}
    13.499479592702,         !- Vertex 1 Z-coordinate {m}
    14.825000773784,         !- Vertex 2 X-coordinate {m}
    -6.750000000000,         !- Vertex 2 Y-coordinate {m}
    12.499479592702,         !- Vertex 2 Z-coordinate {m}
    16.374990104405,         !- Vertex 3 X-coordinate {m}
    -6.750000000000,         !- Vertex 3 Y-coordinate {m}
    12.498138989477,         !- Vertex 3 Z-coordinate {m}
    16.374990104405,         !- Vertex 4 X-coordinate {m}
    -6.750000000000,         !- Vertex 4 Y-coordinate {m}
    13.498138989477;         !- Vertex 4 Z-coordinate {m}

FenestrationSurface:Detailed,
    P5_W17,                  !- Name
    Window,                  !- Surface Type
    Exterior Window,         !- Construction Name
    A94D49,                  !- Building Surface Name
    ,                        !- Outside Boundary Condition Object
    ,                        !- View Factor to Ground
    ,                        !- Frame and Divider Name
    ,                        !- Multiplier
    4,                       !- Number of Vertices
    12.075000006439,         !- Vertex 1 X-coordinate {m}
    -6.750000000000,         !- Vertex 1 Y-coordinate {m}
    13.499952527930,         !- Vertex 1 Z-coordinate {m}
    12.075000006439,         !- Vertex 2 X-coordinate {m}
    -6.750000000000,         !- Vertex 2 Y-coordinate {m}
    12.499952527930,         !- Vertex 2 Z-coordinate {m}
    13.624970130996,         !- Vertex 3 X-coordinate {m}
    -6.750000000000,         !- Vertex 3 Y-coordinate {m}
    12.503233150038,         !- Vertex 3 Z-coordinate {m}
    13.624970130996,         !- Vertex 4 X-coordinate {m}
    -6.750000000000,         !- Vertex 4 Y-coordinate {m}
    13.503233150038;         !- Vertex 4 Z-coordinate {m}

FenestrationSurface:Detailed,
    P5_W18 (Door),           !- Name
    Window,                  !- Surface Type
    Exterior Window,         !- Construction Name
    3B69AA,                  !- Building Surface Name
    ,                        !- Outside Boundary Condition Object
    ,                        !- View Factor to Ground
    ,                        !- Frame and Divider Name
    ,                        !- Multiplier
    4,                       !- Number of Vertices
    9.925000000000,          !- Vertex 1 X-coordinate {m}
    -3.600000000000,         !- Vertex 1 Y-coordinate {m}
    13.500000000000,         !- Vertex 1 Z-coordinate {m}
    9.925000000000,          !- Vertex 2 X-coordinate {m}
    -3.600000000000,         !- Vertex 2 Y-coordinate {m}
    11.450000000000,         !- Vertex 2 Z-coordinate {m}
    11.125000000000,         !- Vertex 3 X-coordinate {m}
    -3.600000000000,         !- Vertex 3 Y-coordinate {m}
    11.450000000000,         !- Vertex 3 Z-coordinate {m}
    11.125000000000,         !- Vertex 4 X-coordinate {m}
    -3.600000000000,         !- Vertex 4 Y-coordinate {m}
    13.500000000000;         !- Vertex 4 Z-coordinate {m}

FenestrationSurface:Detailed,
    P5_W04 (WC),             !- Name
    Window,                  !- Surface Type
    Exterior Window,         !- Construction Name
    128173,                  !- Building Surface Name
    ,                        !- Outside Boundary Condition Object
    ,                        !- View Factor to Ground
    ,                        !- Frame and Divider Name
    ,                        !- Multiplier
    4,                       !- Number of Vertices
    1.174943055996,          !- Vertex 1 X-coordinate {m}
    -0.950000000000,         !- Vertex 1 Y-coordinate {m}
    13.495227751175,         !- Vertex 1 Z-coordinate {m}
    1.172354053991,          !- Vertex 2 X-coordinate {m}
    -0.950000000000,         !- Vertex 2 Y-coordinate {m}
    12.745250095944,         !- Vertex 2 Z-coordinate {m}
    0.172532085488,          !- Vertex 3 X-coordinate {m}
    -0.950000000000,         !- Vertex 3 Y-coordinate {m}
    12.756980816964,         !- Vertex 3 Z-coordinate {m}
    0.175121087494,          !- Vertex 4 X-coordinate {m}
    -0.950000000000,         !- Vertex 4 Y-coordinate {m}
    13.506958472195;         !- Vertex 4 Z-coordinate {m}

FenestrationSurface:Detailed,
    P5_W05 (Kitchen),        !- Name
    Window,                  !- Surface Type
    Exterior Window,         !- Construction Name
    38F241,                  !- Building Surface Name
    ,                        !- Outside Boundary Condition Object
    ,                        !- View Factor to Ground
    ,                        !- Frame and Divider Name
    ,                        !- Multiplier
    4,                       !- Number of Vertices
    1.350000000000,          !- Vertex 1 X-coordinate {m}
    -0.199677588201,         !- Vertex 1 Y-coordinate {m}
    13.491976384209,         !- Vertex 1 Z-coordinate {m}
    1.350000000000,          !- Vertex 2 X-coordinate {m}
    -0.199677588201,         !- Vertex 2 Y-coordinate {m}
    12.491976384209,         !- Vertex 2 Z-coordinate {m}
    1.350000000000,          !- Vertex 3 X-coordinate {m}
    -0.750052959934,         !- Vertex 3 Y-coordinate {m}
    12.496745897660,         !- Vertex 3 Z-coordinate {m}
    1.350000000000,          !- Vertex 4 X-coordinate {m}
    -0.750052959934,         !- Vertex 4 Y-coordinate {m}
    13.496745897660;         !- Vertex 4 Z-coordinate {m}

FenestrationSurface:Detailed,
    P5_W01,                  !- Name
    Window,                  !- Surface Type
    Exterior Window,         !- Construction Name
    71ADB3,                  !- Building Surface Name
    ,                        !- Outside Boundary Condition Object
    ,                        !- View Factor to Ground
    ,                        !- Frame and Divider Name
    ,                        !- Multiplier
    4,                       !- Number of Vertices
    0.775002108892,          !- Vertex 1 X-coordinate {m}
    -6.750000000000,         !- Vertex 1 Y-coordinate {m}
    13.499140867924,         !- Vertex 1 Z-coordinate {m}
    0.775002108892,          !- Vertex 2 X-coordinate {m}
    -6.750000000000,         !- Vertex 2 Y-coordinate {m}
    12.499140867924,         !- Vertex 2 Z-coordinate {m}
    2.324951871339,          !- Vertex 3 X-coordinate {m}
    -6.750000000000,         !- Vertex 3 Y-coordinate {m}
    12.495896012318,         !- Vertex 3 Z-coordinate {m}
    2.324951871339,          !- Vertex 4 X-coordinate {m}
    -6.750000000000,         !- Vertex 4 Y-coordinate {m}
    13.495896012318;         !- Vertex 4 Z-coordinate {m}

FenestrationSurface:Detailed,
    P5_W03 (Door),           !- Name
    Window,                  !- Surface Type
    Exterior Window,         !- Construction Name
    B205A5,                  !- Building Surface Name
    ,                        !- Outside Boundary Condition Object
    ,                        !- View Factor to Ground
    ,                        !- Frame and Divider Name
    ,                        !- Multiplier
    4,                       !- Number of Vertices
    6.075000000000,          !- Vertex 1 X-coordinate {m}
    -3.600000000000,         !- Vertex 1 Y-coordinate {m}
    13.500000000000,         !- Vertex 1 Z-coordinate {m}
    6.075000000000,          !- Vertex 2 X-coordinate {m}
    -3.600000000000,         !- Vertex 2 Y-coordinate {m}
    11.450000000000,         !- Vertex 2 Z-coordinate {m}
    7.275000000000,          !- Vertex 3 X-coordinate {m}
    -3.600000000000,         !- Vertex 3 Y-coordinate {m}
    11.450000000000,         !- Vertex 3 Z-coordinate {m}
    7.275000000000,          !- Vertex 4 X-coordinate {m}
    -3.600000000000,         !- Vertex 4 Y-coordinate {m}
    13.500000000000;         !- Vertex 4 Z-coordinate {m}

FenestrationSurface:Detailed,
    P5_W02,                  !- Name
    Window,                  !- Surface Type
    Exterior Window,         !- Construction Name
    71ADB3,                  !- Building Surface Name
    ,                        !- Outside Boundary Condition Object
    ,                        !- View Factor to Ground
    ,                        !- Frame and Divider Name
    ,                        !- Multiplier
    4,                       !- Number of Vertices
    3.525003268075,          !- Vertex 1 X-coordinate {m}
    -6.750000000000,         !- Vertex 1 Y-coordinate {m}
    13.498930506912,         !- Vertex 1 Z-coordinate {m}
    3.525003268075,          !- Vertex 2 X-coordinate {m}
    -6.750000000000,         !- Vertex 2 Y-coordinate {m}
    12.498930506912,         !- Vertex 2 Z-coordinate {m}
    5.074990393136,          !- Vertex 3 X-coordinate {m}
    -6.750000000000,         !- Vertex 3 Y-coordinate {m}
    12.498166339680,         !- Vertex 3 Z-coordinate {m}
    5.074990393136,          !- Vertex 4 X-coordinate {m}
    -6.750000000000,         !- Vertex 4 Y-coordinate {m}
    13.498166339680;         !- Vertex 4 Z-coordinate {m}

FenestrationSurface:Detailed,
    P5_W09 (WC),             !- Name
    Window,                  !- Surface Type
    Exterior Window,         !- Construction Name
    9A866E,                  !- Building Surface Name
    ,                        !- Outside Boundary Condition Object
    ,                        !- View Factor to Ground
    ,                        !- Frame and Divider Name
    ,                        !- Multiplier
    4,                       !- Number of Vertices
    0.175010184979,          !- Vertex 1 X-coordinate {m}
    0.950000000000,          !- Vertex 1 Y-coordinate {m}
    13.502018387440,         !- Vertex 1 Z-coordinate {m}
    0.175010184979,          !- Vertex 2 X-coordinate {m}
    0.950000000000,          !- Vertex 2 Y-coordinate {m}
    12.752018387440,         !- Vertex 2 Z-coordinate {m}
    1.174983866385,          !- Vertex 3 X-coordinate {m}
    0.950000000000,          !- Vertex 3 Y-coordinate {m}
    12.752540312147,         !- Vertex 3 Z-coordinate {m}
    1.174983866385,          !- Vertex 4 X-coordinate {m}
    0.950000000000,          !- Vertex 4 Y-coordinate {m}
    13.502540312147;         !- Vertex 4 Z-coordinate {m}

FenestrationSurface:Detailed,
    P5_W10 (Kitchen),        !- Name
    Window,                  !- Surface Type
    Exterior Window,         !- Construction Name
    C08EA6,                  !- Building Surface Name
    ,                        !- Outside Boundary Condition Object
    ,                        !- View Factor to Ground
    ,                        !- Frame and Divider Name
    ,                        !- Multiplier
    4,                       !- Number of Vertices
    1.350000000000,          !- Vertex 1 X-coordinate {m}
    0.750009468060,          !- Vertex 1 Y-coordinate {m}
    13.498623946811,         !- Vertex 1 Z-coordinate {m}
    1.350000000000,          !- Vertex 2 X-coordinate {m}
    0.750009468060,          !- Vertex 2 Y-coordinate {m}
    12.498623946811,         !- Vertex 2 Z-coordinate {m}
    1.350000000000,          !- Vertex 3 X-coordinate {m}
    0.198709762549,          !- Vertex 3 Y-coordinate {m}
    12.483988042668,         !- Vertex 3 Z-coordinate {m}
    1.350000000000,          !- Vertex 4 X-coordinate {m}
    0.198709762549,          !- Vertex 4 Y-coordinate {m}
    13.483988042668;         !- Vertex 4 Z-coordinate {m}

FenestrationSurface:Detailed,
    P5_W06,                  !- Name
    Window,                  !- Surface Type
    Exterior Window,         !- Construction Name
    9C5AAE,                  !- Building Surface Name
    ,                        !- Outside Boundary Condition Object
    ,                        !- View Factor to Ground
    ,                        !- Frame and Divider Name
    ,                        !- Multiplier
    4,                       !- Number of Vertices
    2.324997536713,          !- Vertex 1 X-coordinate {m}
    6.750000000000,          !- Vertex 1 Y-coordinate {m}
    13.499071482689,         !- Vertex 1 Z-coordinate {m}
    2.324997536713,          !- Vertex 2 X-coordinate {m}
    6.750000000000,          !- Vertex 2 Y-coordinate {m}
    12.499071482689,         !- Vertex 2 Z-coordinate {m}
    0.775000121538,          !- Vertex 3 X-coordinate {m}
    6.750000000000,          !- Vertex 3 Y-coordinate {m}
    12.499793752053,         !- Vertex 3 Z-coordinate {m}
    0.775000121538,          !- Vertex 4 X-coordinate {m}
    6.750000000000,          !- Vertex 4 Y-coordinate {m}
    13.499793752053;         !- Vertex 4 Z-coordinate {m}

FenestrationSurface:Detailed,
    P5_W07,                  !- Name
    Window,                  !- Surface Type
    Exterior Window,         !- Construction Name
    9C5AAE,                  !- Building Surface Name
    ,                        !- Outside Boundary Condition Object
    ,                        !- View Factor to Ground
    ,                        !- Frame and Divider Name
    ,                        !- Multiplier
    4,                       !- Number of Vertices
    5.074870082628,          !- Vertex 1 X-coordinate {m}
    6.750000000000,          !- Vertex 1 Y-coordinate {m}
    13.493258026874,         !- Vertex 1 Z-coordinate {m}
    5.074870082628,          !- Vertex 2 X-coordinate {m}
    6.750000000000,          !- Vertex 2 Y-coordinate {m}
    12.493258026874,         !- Vertex 2 Z-coordinate {m}
    3.525002331787,          !- Vertex 3 X-coordinate {m}
    6.750000000000,          !- Vertex 3 Y-coordinate {m}
    12.499096606445,         !- Vertex 3 Z-coordinate {m}
    3.525002331787,          !- Vertex 4 X-coordinate {m}
    6.750000000000,          !- Vertex 4 Y-coordinate {m}
    13.499096606445;         !- Vertex 4 Z-coordinate {m}

FenestrationSurface:Detailed,
    P5_W08 (Door),           !- Name
    Window,                  !- Surface Type
    Exterior Window,         !- Construction Name
    83B25B,                  !- Building Surface Name
    ,                        !- Outside Boundary Condition Object
    ,                        !- View Factor to Ground
    ,                        !- Frame and Divider Name
    ,                        !- Multiplier
    4,                       !- Number of Vertices
    7.225000000000,          !- Vertex 1 X-coordinate {m}
    3.600000000000,          !- Vertex 1 Y-coordinate {m}
    13.500000000000,         !- Vertex 1 Z-coordinate {m}
    7.225000000000,          !- Vertex 2 X-coordinate {m}
    3.600000000000,          !- Vertex 2 Y-coordinate {m}
    11.450000000000,         !- Vertex 2 Z-coordinate {m}
    6.025000000000,          !- Vertex 3 X-coordinate {m}
    3.600000000000,          !- Vertex 3 Y-coordinate {m}
    11.450000000000,         !- Vertex 3 Z-coordinate {m}
    6.025000000000,          !- Vertex 4 X-coordinate {m}
    3.600000000000,          !- Vertex 4 Y-coordinate {m}
    13.500000000000;         !- Vertex 4 Z-coordinate {m}

FenestrationSurface:Detailed,
    9E363F,                  !- Name
    Door,                    !- Surface Type
    Exterior Door,           !- Construction Name
    4EA9AE,                  !- Building Surface Name
    ,                        !- Outside Boundary Condition Object
    ,                        !- View Factor to Ground
    ,                        !- Frame and Divider Name
    ,                        !- Multiplier
    4,                       !- Number of Vertices
    9.025000000000,          !- Vertex 1 X-coordinate {m}
    3.600000000000,          !- Vertex 1 Y-coordinate {m}
    2.100000000000,          !- Vertex 1 Z-coordinate {m}
    9.025000000000,          !- Vertex 2 X-coordinate {m}
    3.600000000000,          !- Vertex 2 Y-coordinate {m}
    0.000000000000,          !- Vertex 2 Z-coordinate {m}
    8.125000000000,          !- Vertex 3 X-coordinate {m}
    3.600000000000,          !- Vertex 3 Y-coordinate {m}
    0.000000000000,          !- Vertex 3 Z-coordinate {m}
    8.125000000000,          !- Vertex 4 X-coordinate {m}
    3.600000000000,          !- Vertex 4 Y-coordinate {m}
    2.100000000000;          !- Vertex 4 Z-coordinate {m}


!-   ===========  ALL OBJECTS IN CLASS: INTERNALMASS ===========

InternalMass,
    Massa Termica Ap1p1,     !- Name
    Interior Wall,           !- Construction Name
    APTO01_P1,               !- Zone Name
    32.8;                    !- Surface Area {m2}

InternalMass,
    Massa Termica Ap2p1,     !- Name
    Interior Wall,           !- Construction Name
    APTO02_P1,               !- Zone Name
    32.8;                    !- Surface Area {m2}

InternalMass,
    Massa Termica Ap3p1,     !- Name
    Interior Wall,           !- Construction Name
    APTO03_P1,               !- Zone Name
    32.8;                    !- Surface Area {m2}

InternalMass,
    Massa Termica Ap4p1,     !- Name
    Interior Wall,           !- Construction Name
    APTO04_P1,               !- Zone Name
    32.8;                    !- Surface Area {m2}

InternalMass,
    Massa Termica Ap1p2,     !- Name
    Interior Wall,           !- Construction Name
    APTO01_P2,               !- Zone Name
    32.8;                    !- Surface Area {m2}

InternalMass,
    Massa Termica Ap2p2,     !- Name
    Interior Wall,           !- Construction Name
    APTO02_P2,               !- Zone Name
    32.8;                    !- Surface Area {m2}

InternalMass,
    Massa Termica Ap3p2,     !- Name
    Interior Wall,           !- Construction Name
    APTO03_P2,               !- Zone Name
    32.8;                    !- Surface Area {m2}

InternalMass,
    Massa Termica Ap4p2,     !- Name
    Interior Wall,           !- Construction Name
    APTO04_P2,               !- Zone Name
    32.8;                    !- Surface Area {m2}

InternalMass,
    Massa Termica Ap1p3,     !- Name
    Interior Wall,           !- Construction Name
    APTO01_P3,               !- Zone Name
    32.8;                    !- Surface Area {m2}

InternalMass,
    Massa Termica Ap2p3,     !- Name
    Interior Wall,           !- Construction Name
    APTO02_P3,               !- Zone Name
    32.8;                    !- Surface Area {m2}

InternalMass,
    Massa Termica Ap3p3,     !- Name
    Interior Wall,           !- Construction Name
    APTO03_P3,               !- Zone Name
    32.8;                    !- Surface Area {m2}

InternalMass,
    Massa Termica Ap4p3,     !- Name
    Interior Wall,           !- Construction Name
    APTO04_P3,               !- Zone Name
    32.8;                    !- Surface Area {m2}

InternalMass,
    Massa Termica Ap1p4,     !- Name
    Interior Wall,           !- Construction Name
    APTO01_P4,               !- Zone Name
    32.8;                    !- Surface Area {m2}

InternalMass,
    Massa Termica Ap2p4,     !- Name
    Interior Wall,           !- Construction Name
    APTO02_P4,               !- Zone Name
    32.8;                    !- Surface Area {m2}

InternalMass,
    Massa Termica Ap3p4,     !- Name
    Interior Wall,           !- Construction Name
    APTO03_P4,               !- Zone Name
    32.8;                    !- Surface Area {m2}

InternalMass,
    Massa Termica Ap4p4,     !- Name
    Interior Wall,           !- Construction Name
    APTO04_P4,               !- Zone Name
    32.8;                    !- Surface Area {m2}

InternalMass,
    Massa Termica Ap1p5,     !- Name
    Interior Wall,           !- Construction Name
    APTO01_P5,               !- Zone Name
    32.8;                    !- Surface Area {m2}

InternalMass,
    Massa Termica Ap2p5,     !- Name
    Interior Wall,           !- Construction Name
    APTO02_P5,               !- Zone Name
    32.8;                    !- Surface Area {m2}

InternalMass,
    Massa Termica Ap3p5,     !- Name
    Interior Wall,           !- Construction Name
    APTO03_P5,               !- Zone Name
    32.8;                    !- Surface Area {m2}

InternalMass,
    Massa Termica Ap4p5,     !- Name
    Interior Wall,           !- Construction Name
    APTO04_P5,               !- Zone Name
    32.8;                    !- Surface Area {m2}


!-   ===========  ALL OBJECTS IN CLASS: SHADING:BUILDING:DETAILED ===========

Shading:Building:Detailed,
    87D593,                  !- Name
    ,                        !- Transmittance Schedule Name
    4,                       !- Number of Vertices
    5.800000000000,          !- Vertex 1 X-coordinate {m}
    -3.600000000000,         !- Vertex 1 Y-coordinate {m}
    2.850000000000,          !- Vertex 1 Z-coordinate {m}
    5.800000000000,          !- Vertex 2 X-coordinate {m}
    -5.550000000000,         !- Vertex 2 Y-coordinate {m}
    2.850000000000,          !- Vertex 2 Z-coordinate {m}
    7.450000000000,          !- Vertex 3 X-coordinate {m}
    -5.550000000000,         !- Vertex 3 Y-coordinate {m}
    2.850000000000,          !- Vertex 3 Z-coordinate {m}
    7.450000000000,          !- Vertex 4 X-coordinate {m}
    -3.600000000000,         !- Vertex 4 Y-coordinate {m}
    2.850000000000;          !- Vertex 4 Z-coordinate {m}

Shading:Building:Detailed,
    B979EB,                  !- Name
    ,                        !- Transmittance Schedule Name
    4,                       !- Number of Vertices
    5.800000000000,          !- Vertex 1 X-coordinate {m}
    -3.600000000000,         !- Vertex 1 Y-coordinate {m}
    5.700000000000,          !- Vertex 1 Z-coordinate {m}
    5.800000000000,          !- Vertex 2 X-coordinate {m}
    -5.550000000000,         !- Vertex 2 Y-coordinate {m}
    5.700000000000,          !- Vertex 2 Z-coordinate {m}
    7.450000000000,          !- Vertex 3 X-coordinate {m}
    -5.550000000000,         !- Vertex 3 Y-coordinate {m}
    5.700000000000,          !- Vertex 3 Z-coordinate {m}
    7.450000000000,          !- Vertex 4 X-coordinate {m}
    -3.600000000000,         !- Vertex 4 Y-coordinate {m}
    5.700000000000;          !- Vertex 4 Z-coordinate {m}

Shading:Building:Detailed,
    2A873E,                  !- Name
    ,                        !- Transmittance Schedule Name
    4,                       !- Number of Vertices
    5.800000000000,          !- Vertex 1 X-coordinate {m}
    -3.600000000000,         !- Vertex 1 Y-coordinate {m}
    8.550000000000,          !- Vertex 1 Z-coordinate {m}
    5.800000000000,          !- Vertex 2 X-coordinate {m}
    -5.550000000000,         !- Vertex 2 Y-coordinate {m}
    8.550000000000,          !- Vertex 2 Z-coordinate {m}
    7.450000000000,          !- Vertex 3 X-coordinate {m}
    -5.550000000000,         !- Vertex 3 Y-coordinate {m}
    8.550000000000,          !- Vertex 3 Z-coordinate {m}
    7.450000000000,          !- Vertex 4 X-coordinate {m}
    -3.600000000000,         !- Vertex 4 Y-coordinate {m}
    8.550000000000;          !- Vertex 4 Z-coordinate {m}

Shading:Building:Detailed,
    F23929,                  !- Name
    ,                        !- Transmittance Schedule Name
    4,                       !- Number of Vertices
    5.800000000000,          !- Vertex 1 X-coordinate {m}
    -3.600000000000,         !- Vertex 1 Y-coordinate {m}
    11.400000000000,         !- Vertex 1 Z-coordinate {m}
    5.800000000000,          !- Vertex 2 X-coordinate {m}
    -5.550000000000,         !- Vertex 2 Y-coordinate {m}
    11.400000000000,         !- Vertex 2 Z-coordinate {m}
    7.450000000000,          !- Vertex 3 X-coordinate {m}
    -5.550000000000,         !- Vertex 3 Y-coordinate {m}
    11.400000000000,         !- Vertex 3 Z-coordinate {m}
    7.450000000000,          !- Vertex 4 X-coordinate {m}
    -3.600000000000,         !- Vertex 4 Y-coordinate {m}
    11.400000000000;         !- Vertex 4 Z-coordinate {m}

Shading:Building:Detailed,
    93BDA1,                  !- Name
    ,                        !- Transmittance Schedule Name
    4,                       !- Number of Vertices
    5.800000000000,          !- Vertex 1 X-coordinate {m}
    -3.600000000000,         !- Vertex 1 Y-coordinate {m}
    14.250000000000,         !- Vertex 1 Z-coordinate {m}
    5.800000000000,          !- Vertex 2 X-coordinate {m}
    -5.550000000000,         !- Vertex 2 Y-coordinate {m}
    14.250000000000,         !- Vertex 2 Z-coordinate {m}
    7.450000000000,          !- Vertex 3 X-coordinate {m}
    -5.550000000000,         !- Vertex 3 Y-coordinate {m}
    14.250000000000,         !- Vertex 3 Z-coordinate {m}
    7.450000000000,          !- Vertex 4 X-coordinate {m}
    -3.600000000000,         !- Vertex 4 Y-coordinate {m}
    14.250000000000;         !- Vertex 4 Z-coordinate {m}

Shading:Building:Detailed,
    AB48EF,                  !- Name
    ,                        !- Transmittance Schedule Name
    4,                       !- Number of Vertices
    9.700000000000,          !- Vertex 1 X-coordinate {m}
    -3.600000000000,         !- Vertex 1 Y-coordinate {m}
    5.700000000000,          !- Vertex 1 Z-coordinate {m}
    9.700000000000,          !- Vertex 2 X-coordinate {m}
    -5.550000000000,         !- Vertex 2 Y-coordinate {m}
    5.700000000000,          !- Vertex 2 Z-coordinate {m}
    11.350000000000,         !- Vertex 3 X-coordinate {m}
    -5.550000000000,         !- Vertex 3 Y-coordinate {m}
    5.700000000000,          !- Vertex 3 Z-coordinate {m}
    11.350000000000,         !- Vertex 4 X-coordinate {m}
    -3.600000000000,         !- Vertex 4 Y-coordinate {m}
    5.700000000000;          !- Vertex 4 Z-coordinate {m}

Shading:Building:Detailed,
    ECCA8A,                  !- Name
    ,                        !- Transmittance Schedule Name
    4,                       !- Number of Vertices
    9.700000000000,          !- Vertex 1 X-coordinate {m}
    -3.600000000000,         !- Vertex 1 Y-coordinate {m}
    14.250000000000,         !- Vertex 1 Z-coordinate {m}
    9.700000000000,          !- Vertex 2 X-coordinate {m}
    -5.550000000000,         !- Vertex 2 Y-coordinate {m}
    14.250000000000,         !- Vertex 2 Z-coordinate {m}
    11.350000000000,         !- Vertex 3 X-coordinate {m}
    -5.550000000000,         !- Vertex 3 Y-coordinate {m}
    14.250000000000,         !- Vertex 3 Z-coordinate {m}
    11.350000000000,         !- Vertex 4 X-coordinate {m}
    -3.600000000000,         !- Vertex 4 Y-coordinate {m}
    14.250000000000;         !- Vertex 4 Z-coordinate {m}

Shading:Building:Detailed,
    234472,                  !- Name
    ,                        !- Transmittance Schedule Name
    4,                       !- Number of Vertices
    9.700000000000,          !- Vertex 1 X-coordinate {m}
    -3.600000000000,         !- Vertex 1 Y-coordinate {m}
    11.400000000000,         !- Vertex 1 Z-coordinate {m}
    9.700000000000,          !- Vertex 2 X-coordinate {m}
    -5.550000000000,         !- Vertex 2 Y-coordinate {m}
    11.400000000000,         !- Vertex 2 Z-coordinate {m}
    11.350000000000,         !- Vertex 3 X-coordinate {m}
    -5.550000000000,         !- Vertex 3 Y-coordinate {m}
    11.400000000000,         !- Vertex 3 Z-coordinate {m}
    11.350000000000,         !- Vertex 4 X-coordinate {m}
    -3.600000000000,         !- Vertex 4 Y-coordinate {m}
    11.400000000000;         !- Vertex 4 Z-coordinate {m}

Shading:Building:Detailed,
    4229D7,                  !- Name
    ,                        !- Transmittance Schedule Name
    4,                       !- Number of Vertices
    9.700000000000,          !- Vertex 1 X-coordinate {m}
    -3.600000000000,         !- Vertex 1 Y-coordinate {m}
    8.550000000000,          !- Vertex 1 Z-coordinate {m}
    9.700000000000,          !- Vertex 2 X-coordinate {m}
    -5.550000000000,         !- Vertex 2 Y-coordinate {m}
    8.550000000000,          !- Vertex 2 Z-coordinate {m}
    11.350000000000,         !- Vertex 3 X-coordinate {m}
    -5.550000000000,         !- Vertex 3 Y-coordinate {m}
    8.550000000000,          !- Vertex 3 Z-coordinate {m}
    11.350000000000,         !- Vertex 4 X-coordinate {m}
    -3.600000000000,         !- Vertex 4 Y-coordinate {m}
    8.550000000000;          !- Vertex 4 Z-coordinate {m}

Shading:Building:Detailed,
    7DAD4C,                  !- Name
    ,                        !- Transmittance Schedule Name
    4,                       !- Number of Vertices
    9.700000000000,          !- Vertex 1 X-coordinate {m}
    -3.600000000000,         !- Vertex 1 Y-coordinate {m}
    2.850000000000,          !- Vertex 1 Z-coordinate {m}
    9.700000000000,          !- Vertex 2 X-coordinate {m}
    -5.550000000000,         !- Vertex 2 Y-coordinate {m}
    2.850000000000,          !- Vertex 2 Z-coordinate {m}
    11.350000000000,         !- Vertex 3 X-coordinate {m}
    -5.550000000000,         !- Vertex 3 Y-coordinate {m}
    2.850000000000,          !- Vertex 3 Z-coordinate {m}
    11.350000000000,         !- Vertex 4 X-coordinate {m}
    -3.600000000000,         !- Vertex 4 Y-coordinate {m}
    2.850000000000;          !- Vertex 4 Z-coordinate {m}

Shading:Building:Detailed,
    8BA3E5,                  !- Name
    ,                        !- Transmittance Schedule Name
    4,                       !- Number of Vertices
    9.700000000000,          !- Vertex 1 X-coordinate {m}
    5.550000000000,          !- Vertex 1 Y-coordinate {m}
    14.250000000000,         !- Vertex 1 Z-coordinate {m}
    9.700000000000,          !- Vertex 2 X-coordinate {m}
    3.600000000000,          !- Vertex 2 Y-coordinate {m}
    14.250000000000,         !- Vertex 2 Z-coordinate {m}
    11.350000000000,         !- Vertex 3 X-coordinate {m}
    3.600000000000,          !- Vertex 3 Y-coordinate {m}
    14.250000000000,         !- Vertex 3 Z-coordinate {m}
    11.350000000000,         !- Vertex 4 X-coordinate {m}
    5.550000000000,          !- Vertex 4 Y-coordinate {m}
    14.250000000000;         !- Vertex 4 Z-coordinate {m}

Shading:Building:Detailed,
    BA5F7C,                  !- Name
    ,                        !- Transmittance Schedule Name
    4,                       !- Number of Vertices
    9.700000000000,          !- Vertex 1 X-coordinate {m}
    5.550000000000,          !- Vertex 1 Y-coordinate {m}
    8.550000000000,          !- Vertex 1 Z-coordinate {m}
    9.700000000000,          !- Vertex 2 X-coordinate {m}
    3.600000000000,          !- Vertex 2 Y-coordinate {m}
    8.550000000000,          !- Vertex 2 Z-coordinate {m}
    11.350000000000,         !- Vertex 3 X-coordinate {m}
    3.600000000000,          !- Vertex 3 Y-coordinate {m}
    8.550000000000,          !- Vertex 3 Z-coordinate {m}
    11.350000000000,         !- Vertex 4 X-coordinate {m}
    5.550000000000,          !- Vertex 4 Y-coordinate {m}
    8.550000000000;          !- Vertex 4 Z-coordinate {m}

Shading:Building:Detailed,
    D3B1E6,                  !- Name
    ,                        !- Transmittance Schedule Name
    4,                       !- Number of Vertices
    9.700000000000,          !- Vertex 1 X-coordinate {m}
    5.550000000000,          !- Vertex 1 Y-coordinate {m}
    5.700000000000,          !- Vertex 1 Z-coordinate {m}
    9.700000000000,          !- Vertex 2 X-coordinate {m}
    3.600000000000,          !- Vertex 2 Y-coordinate {m}
    5.700000000000,          !- Vertex 2 Z-coordinate {m}
    11.350000000000,         !- Vertex 3 X-coordinate {m}
    3.600000000000,          !- Vertex 3 Y-coordinate {m}
    5.700000000000,          !- Vertex 3 Z-coordinate {m}
    11.350000000000,         !- Vertex 4 X-coordinate {m}
    5.550000000000,          !- Vertex 4 Y-coordinate {m}
    5.700000000000;          !- Vertex 4 Z-coordinate {m}

Shading:Building:Detailed,
    A7AF6F,                  !- Name
    ,                        !- Transmittance Schedule Name
    4,                       !- Number of Vertices
    9.700000000000,          !- Vertex 1 X-coordinate {m}
    5.550000000000,          !- Vertex 1 Y-coordinate {m}
    2.850000000000,          !- Vertex 1 Z-coordinate {m}
    9.700000000000,          !- Vertex 2 X-coordinate {m}
    3.600000000000,          !- Vertex 2 Y-coordinate {m}
    2.850000000000,          !- Vertex 2 Z-coordinate {m}
    11.350000000000,         !- Vertex 3 X-coordinate {m}
    3.600000000000,          !- Vertex 3 Y-coordinate {m}
    2.850000000000,          !- Vertex 3 Z-coordinate {m}
    11.350000000000,         !- Vertex 4 X-coordinate {m}
    5.550000000000,          !- Vertex 4 Y-coordinate {m}
    2.850000000000;          !- Vertex 4 Z-coordinate {m}

Shading:Building:Detailed,
    2C89D3,                  !- Name
    ,                        !- Transmittance Schedule Name
    4,                       !- Number of Vertices
    5.800000000000,          !- Vertex 1 X-coordinate {m}
    5.550000000000,          !- Vertex 1 Y-coordinate {m}
    2.850000000000,          !- Vertex 1 Z-coordinate {m}
    5.800000000000,          !- Vertex 2 X-coordinate {m}
    3.600000000000,          !- Vertex 2 Y-coordinate {m}
    2.850000000000,          !- Vertex 2 Z-coordinate {m}
    7.450000000000,          !- Vertex 3 X-coordinate {m}
    3.600000000000,          !- Vertex 3 Y-coordinate {m}
    2.850000000000,          !- Vertex 3 Z-coordinate {m}
    7.450000000000,          !- Vertex 4 X-coordinate {m}
    5.550000000000,          !- Vertex 4 Y-coordinate {m}
    2.850000000000;          !- Vertex 4 Z-coordinate {m}

Shading:Building:Detailed,
    4CD46C,                  !- Name
    ,                        !- Transmittance Schedule Name
    4,                       !- Number of Vertices
    5.800000000000,          !- Vertex 1 X-coordinate {m}
    5.550000000000,          !- Vertex 1 Y-coordinate {m}
    11.400000000000,         !- Vertex 1 Z-coordinate {m}
    5.800000000000,          !- Vertex 2 X-coordinate {m}
    3.600000000000,          !- Vertex 2 Y-coordinate {m}
    11.400000000000,         !- Vertex 2 Z-coordinate {m}
    7.450000000000,          !- Vertex 3 X-coordinate {m}
    3.600000000000,          !- Vertex 3 Y-coordinate {m}
    11.400000000000,         !- Vertex 3 Z-coordinate {m}
    7.450000000000,          !- Vertex 4 X-coordinate {m}
    5.550000000000,          !- Vertex 4 Y-coordinate {m}
    11.400000000000;         !- Vertex 4 Z-coordinate {m}

Shading:Building:Detailed,
    DB3C29,                  !- Name
    ,                        !- Transmittance Schedule Name
    4,                       !- Number of Vertices
    5.800000000000,          !- Vertex 1 X-coordinate {m}
    5.550000000000,          !- Vertex 1 Y-coordinate {m}
    14.250000000000,         !- Vertex 1 Z-coordinate {m}
    5.800000000000,          !- Vertex 2 X-coordinate {m}
    3.600000000000,          !- Vertex 2 Y-coordinate {m}
    14.250000000000,         !- Vertex 2 Z-coordinate {m}
    7.450000000000,          !- Vertex 3 X-coordinate {m}
    3.600000000000,          !- Vertex 3 Y-coordinate {m}
    14.250000000000,         !- Vertex 3 Z-coordinate {m}
    7.450000000000,          !- Vertex 4 X-coordinate {m}
    5.550000000000,          !- Vertex 4 Y-coordinate {m}
    14.250000000000;         !- Vertex 4 Z-coordinate {m}

Shading:Building:Detailed,
    D95C88,                  !- Name
    ,                        !- Transmittance Schedule Name
    4,                       !- Number of Vertices
    9.700000000000,          !- Vertex 1 X-coordinate {m}
    5.550000000000,          !- Vertex 1 Y-coordinate {m}
    11.400000000000,         !- Vertex 1 Z-coordinate {m}
    9.700000000000,          !- Vertex 2 X-coordinate {m}
    3.600000000000,          !- Vertex 2 Y-coordinate {m}
    11.400000000000,         !- Vertex 2 Z-coordinate {m}
    11.350000000000,         !- Vertex 3 X-coordinate {m}
    3.600000000000,          !- Vertex 3 Y-coordinate {m}
    11.400000000000,         !- Vertex 3 Z-coordinate {m}
    11.350000000000,         !- Vertex 4 X-coordinate {m}
    5.550000000000,          !- Vertex 4 Y-coordinate {m}
    11.400000000000;         !- Vertex 4 Z-coordinate {m}

Shading:Building:Detailed,
    B3D312,                  !- Name
    ,                        !- Transmittance Schedule Name
    4,                       !- Number of Vertices
    5.800000000000,          !- Vertex 1 X-coordinate {m}
    5.550000000000,          !- Vertex 1 Y-coordinate {m}
    8.550000000000,          !- Vertex 1 Z-coordinate {m}
    5.800000000000,          !- Vertex 2 X-coordinate {m}
    3.600000000000,          !- Vertex 2 Y-coordinate {m}
    8.550000000000,          !- Vertex 2 Z-coordinate {m}
    7.450000000000,          !- Vertex 3 X-coordinate {m}
    3.600000000000,          !- Vertex 3 Y-coordinate {m}
    8.550000000000,          !- Vertex 3 Z-coordinate {m}
    7.450000000000,          !- Vertex 4 X-coordinate {m}
    5.550000000000,          !- Vertex 4 Y-coordinate {m}
    8.550000000000;          !- Vertex 4 Z-coordinate {m}

Shading:Building:Detailed,
    8A8AEF,                  !- Name
    ,                        !- Transmittance Schedule Name
    4,                       !- Number of Vertices
    5.800000000000,          !- Vertex 1 X-coordinate {m}
    5.550000000000,          !- Vertex 1 Y-coordinate {m}
    5.700000000000,          !- Vertex 1 Z-coordinate {m}
    5.800000000000,          !- Vertex 2 X-coordinate {m}
    3.600000000000,          !- Vertex 2 Y-coordinate {m}
    5.700000000000,          !- Vertex 2 Z-coordinate {m}
    7.450000000000,          !- Vertex 3 X-coordinate {m}
    3.600000000000,          !- Vertex 3 Y-coordinate {m}
    5.700000000000,          !- Vertex 3 Z-coordinate {m}
    7.450000000000,          !- Vertex 4 X-coordinate {m}
    5.550000000000,          !- Vertex 4 Y-coordinate {m}
    5.700000000000;          !- Vertex 4 Z-coordinate {m}

Shading:Building:Detailed,
    143049,                  !- Name
    ,                        !- Transmittance Schedule Name
    4,                       !- Number of Vertices
    8.000000000000,          !- Vertex 1 X-coordinate {m}
    -4.600000000000,         !- Vertex 1 Y-coordinate {m}
    14.250000000000,         !- Vertex 1 Z-coordinate {m}
    8.000000000000,          !- Vertex 2 X-coordinate {m}
    -4.600000000000,         !- Vertex 2 Y-coordinate {m}
    0.000000000000,          !- Vertex 2 Z-coordinate {m}
    8.000000000000,          !- Vertex 3 X-coordinate {m}
    -3.600000000000,         !- Vertex 3 Y-coordinate {m}
    0.000000000000,          !- Vertex 3 Z-coordinate {m}
    8.000000000000,          !- Vertex 4 X-coordinate {m}
    -3.600000000000,         !- Vertex 4 Y-coordinate {m}
    14.250000000000;         !- Vertex 4 Z-coordinate {m}

Shading:Building:Detailed,
    4A503A,                  !- Name
    ,                        !- Transmittance Schedule Name
    4,                       !- Number of Vertices
    7.450000000000,          !- Vertex 1 X-coordinate {m}
    -4.600000000000,         !- Vertex 1 Y-coordinate {m}
    14.250000000000,         !- Vertex 1 Z-coordinate {m}
    7.450000000000,          !- Vertex 2 X-coordinate {m}
    -4.600000000000,         !- Vertex 2 Y-coordinate {m}
    0.000000000000,          !- Vertex 2 Z-coordinate {m}
    8.000000000000,          !- Vertex 3 X-coordinate {m}
    -4.600000000000,         !- Vertex 3 Y-coordinate {m}
    0.000000000000,          !- Vertex 3 Z-coordinate {m}
    8.000000000000,          !- Vertex 4 X-coordinate {m}
    -4.600000000000,         !- Vertex 4 Y-coordinate {m}
    14.250000000000;         !- Vertex 4 Z-coordinate {m}

Shading:Building:Detailed,
    C2A50A,                  !- Name
    ,                        !- Transmittance Schedule Name
    4,                       !- Number of Vertices
    9.150000000000,          !- Vertex 1 X-coordinate {m}
    -4.600000000000,         !- Vertex 1 Y-coordinate {m}
    14.250000000000,         !- Vertex 1 Z-coordinate {m}
    9.150000000000,          !- Vertex 2 X-coordinate {m}
    -4.600000000000,         !- Vertex 2 Y-coordinate {m}
    0.000000000000,          !- Vertex 2 Z-coordinate {m}
    9.700000000000,          !- Vertex 3 X-coordinate {m}
    -4.600000000000,         !- Vertex 3 Y-coordinate {m}
    0.000000000000,          !- Vertex 3 Z-coordinate {m}
    9.700000000000,          !- Vertex 4 X-coordinate {m}
    -4.600000000000,         !- Vertex 4 Y-coordinate {m}
    14.250000000000;         !- Vertex 4 Z-coordinate {m}

Shading:Building:Detailed,
    B6A7E1,                  !- Name
    ,                        !- Transmittance Schedule Name
    4,                       !- Number of Vertices
    9.700000000000,          !- Vertex 1 X-coordinate {m}
    -4.600000000000,         !- Vertex 1 Y-coordinate {m}
    14.250000000000,         !- Vertex 1 Z-coordinate {m}
    9.700000000000,          !- Vertex 2 X-coordinate {m}
    -4.600000000000,         !- Vertex 2 Y-coordinate {m}
    0.000000000000,          !- Vertex 2 Z-coordinate {m}
    9.700000000000,          !- Vertex 3 X-coordinate {m}
    -3.600000000000,         !- Vertex 3 Y-coordinate {m}
    0.000000000000,          !- Vertex 3 Z-coordinate {m}
    9.700000000000,          !- Vertex 4 X-coordinate {m}
    -3.600000000000,         !- Vertex 4 Y-coordinate {m}
    14.250000000000;         !- Vertex 4 Z-coordinate {m}

Shading:Building:Detailed,
    593431,                  !- Name
    ,                        !- Transmittance Schedule Name
    4,                       !- Number of Vertices
    9.150000000000,          !- Vertex 1 X-coordinate {m}
    -3.600000000000,         !- Vertex 1 Y-coordinate {m}
    14.250000000000,         !- Vertex 1 Z-coordinate {m}
    9.150000000000,          !- Vertex 2 X-coordinate {m}
    -3.600000000000,         !- Vertex 2 Y-coordinate {m}
    0.000000000000,          !- Vertex 2 Z-coordinate {m}
    9.150000000000,          !- Vertex 3 X-coordinate {m}
    -4.600000000000,         !- Vertex 3 Y-coordinate {m}
    0.000000000000,          !- Vertex 3 Z-coordinate {m}
    9.150000000000,          !- Vertex 4 X-coordinate {m}
    -4.600000000000,         !- Vertex 4 Y-coordinate {m}
    14.250000000000;         !- Vertex 4 Z-coordinate {m}

Shading:Building:Detailed,
    92B6C1,                  !- Name
    ,                        !- Transmittance Schedule Name
    4,                       !- Number of Vertices
    9.700000000000,          !- Vertex 1 X-coordinate {m}
    4.600000000000,          !- Vertex 1 Y-coordinate {m}
    14.250000000000,         !- Vertex 1 Z-coordinate {m}
    9.700000000000,          !- Vertex 2 X-coordinate {m}
    4.600000000000,          !- Vertex 2 Y-coordinate {m}
    0.000000000000,          !- Vertex 2 Z-coordinate {m}
    9.150000000000,          !- Vertex 3 X-coordinate {m}
    4.600000000000,          !- Vertex 3 Y-coordinate {m}
    0.000000000000,          !- Vertex 3 Z-coordinate {m}
    9.150000000000,          !- Vertex 4 X-coordinate {m}
    4.600000000000,          !- Vertex 4 Y-coordinate {m}
    14.250000000000;         !- Vertex 4 Z-coordinate {m}

Shading:Building:Detailed,
    559FD7,                  !- Name
    ,                        !- Transmittance Schedule Name
    4,                       !- Number of Vertices
    9.150000000000,          !- Vertex 1 X-coordinate {m}
    4.600000000000,          !- Vertex 1 Y-coordinate {m}
    14.250000000000,         !- Vertex 1 Z-coordinate {m}
    9.150000000000,          !- Vertex 2 X-coordinate {m}
    4.600000000000,          !- Vertex 2 Y-coordinate {m}
    0.000000000000,          !- Vertex 2 Z-coordinate {m}
    9.150000000000,          !- Vertex 3 X-coordinate {m}
    3.600000000000,          !- Vertex 3 Y-coordinate {m}
    0.000000000000,          !- Vertex 3 Z-coordinate {m}
    9.150000000000,          !- Vertex 4 X-coordinate {m}
    3.600000000000,          !- Vertex 4 Y-coordinate {m}
    14.250000000000;         !- Vertex 4 Z-coordinate {m}

Shading:Building:Detailed,
    65A49D,                  !- Name
    ,                        !- Transmittance Schedule Name
    4,                       !- Number of Vertices
    8.000000000000,          !- Vertex 1 X-coordinate {m}
    3.600000000000,          !- Vertex 1 Y-coordinate {m}
    14.250000000000,         !- Vertex 1 Z-coordinate {m}
    8.000000000000,          !- Vertex 2 X-coordinate {m}
    3.600000000000,          !- Vertex 2 Y-coordinate {m}
    0.000000000000,          !- Vertex 2 Z-coordinate {m}
    8.000000000000,          !- Vertex 3 X-coordinate {m}
    4.600000000000,          !- Vertex 3 Y-coordinate {m}
    0.000000000000,          !- Vertex 3 Z-coordinate {m}
    8.000000000000,          !- Vertex 4 X-coordinate {m}
    4.600000000000,          !- Vertex 4 Y-coordinate {m}
    14.250000000000;         !- Vertex 4 Z-coordinate {m}

Shading:Building:Detailed,
    AE04B2,                  !- Name
    ,                        !- Transmittance Schedule Name
    4,                       !- Number of Vertices
    8.000000000000,          !- Vertex 1 X-coordinate {m}
    4.600000000000,          !- Vertex 1 Y-coordinate {m}
    14.250000000000,         !- Vertex 1 Z-coordinate {m}
    8.000000000000,          !- Vertex 2 X-coordinate {m}
    4.600000000000,          !- Vertex 2 Y-coordinate {m}
    0.000000000000,          !- Vertex 2 Z-coordinate {m}
    7.450000000000,          !- Vertex 3 X-coordinate {m}
    4.600000000000,          !- Vertex 3 Y-coordinate {m}
    0.000000000000,          !- Vertex 3 Z-coordinate {m}
    7.450000000000,          !- Vertex 4 X-coordinate {m}
    4.600000000000,          !- Vertex 4 Y-coordinate {m}
    14.250000000000;         !- Vertex 4 Z-coordinate {m}

Shading:Building:Detailed,
    65401B,                  !- Name
    ,                        !- Transmittance Schedule Name
    4,                       !- Number of Vertices
    17.150000000000,         !- Vertex 1 X-coordinate {m}
    6.750000000000,          !- Vertex 1 Y-coordinate {m}
    15.450000000000,         !- Vertex 1 Z-coordinate {m}
    17.150000000000,         !- Vertex 2 X-coordinate {m}
    6.750000000000,          !- Vertex 2 Y-coordinate {m}
    14.250000000000,         !- Vertex 2 Z-coordinate {m}
    11.350000000000,         !- Vertex 3 X-coordinate {m}
    6.750000000000,          !- Vertex 3 Y-coordinate {m}
    14.250000000000,         !- Vertex 3 Z-coordinate {m}
    11.350000000000,         !- Vertex 4 X-coordinate {m}
    6.750000000000,          !- Vertex 4 Y-coordinate {m}
    15.450000000000;         !- Vertex 4 Z-coordinate {m}

Shading:Building:Detailed,
    CEE73F,                  !- Name
    ,                        !- Transmittance Schedule Name
    4,                       !- Number of Vertices
    11.350000000000,         !- Vertex 1 X-coordinate {m}
    6.750000000000,          !- Vertex 1 Y-coordinate {m}
    15.450000000000,         !- Vertex 1 Z-coordinate {m}
    11.350000000000,         !- Vertex 2 X-coordinate {m}
    6.750000000000,          !- Vertex 2 Y-coordinate {m}
    14.250000000000,         !- Vertex 2 Z-coordinate {m}
    11.350000000000,         !- Vertex 3 X-coordinate {m}
    5.550000000000,          !- Vertex 3 Y-coordinate {m}
    14.250000000000,         !- Vertex 3 Z-coordinate {m}
    11.350000000000,         !- Vertex 4 X-coordinate {m}
    5.550000000000,          !- Vertex 4 Y-coordinate {m}
    15.450000000000;         !- Vertex 4 Z-coordinate {m}

Shading:Building:Detailed,
    D2A5A1,                  !- Name
    ,                        !- Transmittance Schedule Name
    4,                       !- Number of Vertices
    11.350000000000,         !- Vertex 1 X-coordinate {m}
    5.550000000000,          !- Vertex 1 Y-coordinate {m}
    15.450000000000,         !- Vertex 1 Z-coordinate {m}
    11.350000000000,         !- Vertex 2 X-coordinate {m}
    5.550000000000,          !- Vertex 2 Y-coordinate {m}
    14.250000000000,         !- Vertex 2 Z-coordinate {m}
    9.700000000000,          !- Vertex 3 X-coordinate {m}
    5.550000000000,          !- Vertex 3 Y-coordinate {m}
    14.250000000000,         !- Vertex 3 Z-coordinate {m}
    9.700000000000,          !- Vertex 4 X-coordinate {m}
    5.550000000000,          !- Vertex 4 Y-coordinate {m}
    15.450000000000;         !- Vertex 4 Z-coordinate {m}

Shading:Building:Detailed,
    475349,                  !- Name
    ,                        !- Transmittance Schedule Name
    4,                       !- Number of Vertices
    9.700000000000,          !- Vertex 1 X-coordinate {m}
    5.550000000000,          !- Vertex 1 Y-coordinate {m}
    15.450000000000,         !- Vertex 1 Z-coordinate {m}
    9.700000000000,          !- Vertex 2 X-coordinate {m}
    5.550000000000,          !- Vertex 2 Y-coordinate {m}
    14.250000000000,         !- Vertex 2 Z-coordinate {m}
    9.700000000000,          !- Vertex 3 X-coordinate {m}
    4.600000000000,          !- Vertex 3 Y-coordinate {m}
    14.250000000000,         !- Vertex 3 Z-coordinate {m}
    9.700000000000,          !- Vertex 4 X-coordinate {m}
    4.600000000000,          !- Vertex 4 Y-coordinate {m}
    15.450000000000;         !- Vertex 4 Z-coordinate {m}

Shading:Building:Detailed,
    68336B,                  !- Name
    ,                        !- Transmittance Schedule Name
    4,                       !- Number of Vertices
    9.150000000000,          !- Vertex 1 X-coordinate {m}
    4.600000000000,          !- Vertex 1 Y-coordinate {m}
    15.450000000000,         !- Vertex 1 Z-coordinate {m}
    9.150000000000,          !- Vertex 2 X-coordinate {m}
    4.600000000000,          !- Vertex 2 Y-coordinate {m}
    14.250000000000,         !- Vertex 2 Z-coordinate {m}
    9.150000000000,          !- Vertex 3 X-coordinate {m}
    3.600000000000,          !- Vertex 3 Y-coordinate {m}
    14.250000000000,         !- Vertex 3 Z-coordinate {m}
    9.150000000000,          !- Vertex 4 X-coordinate {m}
    3.600000000000,          !- Vertex 4 Y-coordinate {m}
    15.450000000000;         !- Vertex 4 Z-coordinate {m}

Shading:Building:Detailed,
    1C7B48,                  !- Name
    ,                        !- Transmittance Schedule Name
    4,                       !- Number of Vertices
    9.700000000000,          !- Vertex 1 X-coordinate {m}
    4.600000000000,          !- Vertex 1 Y-coordinate {m}
    15.450000000000,         !- Vertex 1 Z-coordinate {m}
    9.700000000000,          !- Vertex 2 X-coordinate {m}
    4.600000000000,          !- Vertex 2 Y-coordinate {m}
    14.250000000000,         !- Vertex 2 Z-coordinate {m}
    9.150000000000,          !- Vertex 3 X-coordinate {m}
    4.600000000000,          !- Vertex 3 Y-coordinate {m}
    14.250000000000,         !- Vertex 3 Z-coordinate {m}
    9.150000000000,          !- Vertex 4 X-coordinate {m}
    4.600000000000,          !- Vertex 4 Y-coordinate {m}
    15.450000000000;         !- Vertex 4 Z-coordinate {m}

Shading:Building:Detailed,
    2BC91D,                  !- Name
    ,                        !- Transmittance Schedule Name
    4,                       !- Number of Vertices
    9.150000000000,          !- Vertex 1 X-coordinate {m}
    3.600000000000,          !- Vertex 1 Y-coordinate {m}
    15.450000000000,         !- Vertex 1 Z-coordinate {m}
    9.150000000000,          !- Vertex 2 X-coordinate {m}
    3.600000000000,          !- Vertex 2 Y-coordinate {m}
    14.250000000000,         !- Vertex 2 Z-coordinate {m}
    8.000000000000,          !- Vertex 3 X-coordinate {m}
    3.600000000000,          !- Vertex 3 Y-coordinate {m}
    14.250000000000,         !- Vertex 3 Z-coordinate {m}
    8.000000000000,          !- Vertex 4 X-coordinate {m}
    3.600000000000,          !- Vertex 4 Y-coordinate {m}
    15.450000000000;         !- Vertex 4 Z-coordinate {m}

Shading:Building:Detailed,
    DDD705,                  !- Name
    ,                        !- Transmittance Schedule Name
    4,                       !- Number of Vertices
    8.000000000000,          !- Vertex 1 X-coordinate {m}
    3.600000000000,          !- Vertex 1 Y-coordinate {m}
    15.450000000000,         !- Vertex 1 Z-coordinate {m}
    8.000000000000,          !- Vertex 2 X-coordinate {m}
    3.600000000000,          !- Vertex 2 Y-coordinate {m}
    14.250000000000,         !- Vertex 2 Z-coordinate {m}
    8.000000000000,          !- Vertex 3 X-coordinate {m}
    4.600000000000,          !- Vertex 3 Y-coordinate {m}
    14.250000000000,         !- Vertex 3 Z-coordinate {m}
    8.000000000000,          !- Vertex 4 X-coordinate {m}
    4.600000000000,          !- Vertex 4 Y-coordinate {m}
    15.450000000000;         !- Vertex 4 Z-coordinate {m}

Shading:Building:Detailed,
    C91F1B,                  !- Name
    ,                        !- Transmittance Schedule Name
    4,                       !- Number of Vertices
    8.000000000000,          !- Vertex 1 X-coordinate {m}
    4.600000000000,          !- Vertex 1 Y-coordinate {m}
    15.450000000000,         !- Vertex 1 Z-coordinate {m}
    8.000000000000,          !- Vertex 2 X-coordinate {m}
    4.600000000000,          !- Vertex 2 Y-coordinate {m}
    14.250000000000,         !- Vertex 2 Z-coordinate {m}
    7.450000000000,          !- Vertex 3 X-coordinate {m}
    4.600000000000,          !- Vertex 3 Y-coordinate {m}
    14.250000000000,         !- Vertex 3 Z-coordinate {m}
    7.450000000000,          !- Vertex 4 X-coordinate {m}
    4.600000000000,          !- Vertex 4 Y-coordinate {m}
    15.450000000000;         !- Vertex 4 Z-coordinate {m}

Shading:Building:Detailed,
    F33D9F,                  !- Name
    ,                        !- Transmittance Schedule Name
    4,                       !- Number of Vertices
    7.450000000000,          !- Vertex 1 X-coordinate {m}
    4.600000000000,          !- Vertex 1 Y-coordinate {m}
    15.450000000000,         !- Vertex 1 Z-coordinate {m}
    7.450000000000,          !- Vertex 2 X-coordinate {m}
    4.600000000000,          !- Vertex 2 Y-coordinate {m}
    14.250000000000,         !- Vertex 2 Z-coordinate {m}
    7.450000000000,          !- Vertex 3 X-coordinate {m}
    5.550000000000,          !- Vertex 3 Y-coordinate {m}
    14.250000000000,         !- Vertex 3 Z-coordinate {m}
    7.450000000000,          !- Vertex 4 X-coordinate {m}
    5.550000000000,          !- Vertex 4 Y-coordinate {m}
    15.450000000000;         !- Vertex 4 Z-coordinate {m}

Shading:Building:Detailed,
    A88A0E,                  !- Name
    ,                        !- Transmittance Schedule Name
    4,                       !- Number of Vertices
    7.450000000000,          !- Vertex 1 X-coordinate {m}
    5.550000000000,          !- Vertex 1 Y-coordinate {m}
    15.450000000000,         !- Vertex 1 Z-coordinate {m}
    7.450000000000,          !- Vertex 2 X-coordinate {m}
    5.550000000000,          !- Vertex 2 Y-coordinate {m}
    14.250000000000,         !- Vertex 2 Z-coordinate {m}
    5.800000000000,          !- Vertex 3 X-coordinate {m}
    5.550000000000,          !- Vertex 3 Y-coordinate {m}
    14.250000000000,         !- Vertex 3 Z-coordinate {m}
    5.800000000000,          !- Vertex 4 X-coordinate {m}
    5.550000000000,          !- Vertex 4 Y-coordinate {m}
    15.450000000000;         !- Vertex 4 Z-coordinate {m}

Shading:Building:Detailed,
    57AABD,                  !- Name
    ,                        !- Transmittance Schedule Name
    4,                       !- Number of Vertices
    5.800000000000,          !- Vertex 1 X-coordinate {m}
    5.550000000000,          !- Vertex 1 Y-coordinate {m}
    15.450000000000,         !- Vertex 1 Z-coordinate {m}
    5.800000000000,          !- Vertex 2 X-coordinate {m}
    5.550000000000,          !- Vertex 2 Y-coordinate {m}
    14.250000000000,         !- Vertex 2 Z-coordinate {m}
    5.800000000000,          !- Vertex 3 X-coordinate {m}
    6.750000000000,          !- Vertex 3 Y-coordinate {m}
    14.250000000000,         !- Vertex 3 Z-coordinate {m}
    5.800000000000,          !- Vertex 4 X-coordinate {m}
    6.750000000000,          !- Vertex 4 Y-coordinate {m}
    15.450000000000;         !- Vertex 4 Z-coordinate {m}

Shading:Building:Detailed,
    6BEC1A,                  !- Name
    ,                        !- Transmittance Schedule Name
    4,                       !- Number of Vertices
    5.800000000000,          !- Vertex 1 X-coordinate {m}
    6.750000000000,          !- Vertex 1 Y-coordinate {m}
    15.450000000000,         !- Vertex 1 Z-coordinate {m}
    5.800000000000,          !- Vertex 2 X-coordinate {m}
    6.750000000000,          !- Vertex 2 Y-coordinate {m}
    14.250000000000,         !- Vertex 2 Z-coordinate {m}
    0.000000000000,          !- Vertex 3 X-coordinate {m}
    6.750000000000,          !- Vertex 3 Y-coordinate {m}
    14.250000000000,         !- Vertex 3 Z-coordinate {m}
    0.000000000000,          !- Vertex 4 X-coordinate {m}
    6.750000000000,          !- Vertex 4 Y-coordinate {m}
    15.450000000000;         !- Vertex 4 Z-coordinate {m}

Shading:Building:Detailed,
    989B1F,                  !- Name
    ,                        !- Transmittance Schedule Name
    4,                       !- Number of Vertices
    0.000000000000,          !- Vertex 1 X-coordinate {m}
    -6.750000000000,         !- Vertex 1 Y-coordinate {m}
    15.450000000000,         !- Vertex 1 Z-coordinate {m}
    0.000000000000,          !- Vertex 2 X-coordinate {m}
    -6.750000000000,         !- Vertex 2 Y-coordinate {m}
    14.250000000000,         !- Vertex 2 Z-coordinate {m}
    5.800000000000,          !- Vertex 3 X-coordinate {m}
    -6.750000000000,         !- Vertex 3 Y-coordinate {m}
    14.250000000000,         !- Vertex 3 Z-coordinate {m}
    5.800000000000,          !- Vertex 4 X-coordinate {m}
    -6.750000000000,         !- Vertex 4 Y-coordinate {m}
    15.450000000000;         !- Vertex 4 Z-coordinate {m}

Shading:Building:Detailed,
    85154B,                  !- Name
    ,                        !- Transmittance Schedule Name
    4,                       !- Number of Vertices
    5.800000000000,          !- Vertex 1 X-coordinate {m}
    -6.750000000000,         !- Vertex 1 Y-coordinate {m}
    15.450000000000,         !- Vertex 1 Z-coordinate {m}
    5.800000000000,          !- Vertex 2 X-coordinate {m}
    -6.750000000000,         !- Vertex 2 Y-coordinate {m}
    14.250000000000,         !- Vertex 2 Z-coordinate {m}
    5.800000000000,          !- Vertex 3 X-coordinate {m}
    -5.550000000000,         !- Vertex 3 Y-coordinate {m}
    14.250000000000,         !- Vertex 3 Z-coordinate {m}
    5.800000000000,          !- Vertex 4 X-coordinate {m}
    -5.550000000000,         !- Vertex 4 Y-coordinate {m}
    15.450000000000;         !- Vertex 4 Z-coordinate {m}

Shading:Building:Detailed,
    7283C3,                  !- Name
    ,                        !- Transmittance Schedule Name
    4,                       !- Number of Vertices
    5.800000000000,          !- Vertex 1 X-coordinate {m}
    -5.550000000000,         !- Vertex 1 Y-coordinate {m}
    15.450000000000,         !- Vertex 1 Z-coordinate {m}
    5.800000000000,          !- Vertex 2 X-coordinate {m}
    -5.550000000000,         !- Vertex 2 Y-coordinate {m}
    14.250000000000,         !- Vertex 2 Z-coordinate {m}
    7.450000000000,          !- Vertex 3 X-coordinate {m}
    -5.550000000000,         !- Vertex 3 Y-coordinate {m}
    14.250000000000,         !- Vertex 3 Z-coordinate {m}
    7.450000000000,          !- Vertex 4 X-coordinate {m}
    -5.550000000000,         !- Vertex 4 Y-coordinate {m}
    15.450000000000;         !- Vertex 4 Z-coordinate {m}

Shading:Building:Detailed,
    A1FD52,                  !- Name
    ,                        !- Transmittance Schedule Name
    4,                       !- Number of Vertices
    7.450000000000,          !- Vertex 1 X-coordinate {m}
    -5.550000000000,         !- Vertex 1 Y-coordinate {m}
    15.450000000000,         !- Vertex 1 Z-coordinate {m}
    7.450000000000,          !- Vertex 2 X-coordinate {m}
    -5.550000000000,         !- Vertex 2 Y-coordinate {m}
    14.250000000000,         !- Vertex 2 Z-coordinate {m}
    7.450000000000,          !- Vertex 3 X-coordinate {m}
    -4.600000000000,         !- Vertex 3 Y-coordinate {m}
    14.250000000000,         !- Vertex 3 Z-coordinate {m}
    7.450000000000,          !- Vertex 4 X-coordinate {m}
    -4.600000000000,         !- Vertex 4 Y-coordinate {m}
    15.450000000000;         !- Vertex 4 Z-coordinate {m}

Shading:Building:Detailed,
    9D154F,                  !- Name
    ,                        !- Transmittance Schedule Name
    4,                       !- Number of Vertices
    7.450000000000,          !- Vertex 1 X-coordinate {m}
    -4.600000000000,         !- Vertex 1 Y-coordinate {m}
    15.450000000000,         !- Vertex 1 Z-coordinate {m}
    7.450000000000,          !- Vertex 2 X-coordinate {m}
    -4.600000000000,         !- Vertex 2 Y-coordinate {m}
    14.250000000000,         !- Vertex 2 Z-coordinate {m}
    8.000000000000,          !- Vertex 3 X-coordinate {m}
    -4.600000000000,         !- Vertex 3 Y-coordinate {m}
    14.250000000000,         !- Vertex 3 Z-coordinate {m}
    8.000000000000,          !- Vertex 4 X-coordinate {m}
    -4.600000000000,         !- Vertex 4 Y-coordinate {m}
    15.450000000000;         !- Vertex 4 Z-coordinate {m}

Shading:Building:Detailed,
    EBFAAE,                  !- Name
    ,                        !- Transmittance Schedule Name
    4,                       !- Number of Vertices
    8.000000000000,          !- Vertex 1 X-coordinate {m}
    -4.600000000000,         !- Vertex 1 Y-coordinate {m}
    15.450000000000,         !- Vertex 1 Z-coordinate {m}
    8.000000000000,          !- Vertex 2 X-coordinate {m}
    -4.600000000000,         !- Vertex 2 Y-coordinate {m}
    14.250000000000,         !- Vertex 2 Z-coordinate {m}
    8.000000000000,          !- Vertex 3 X-coordinate {m}
    -3.600000000000,         !- Vertex 3 Y-coordinate {m}
    14.250000000000,         !- Vertex 3 Z-coordinate {m}
    8.000000000000,          !- Vertex 4 X-coordinate {m}
    -3.600000000000,         !- Vertex 4 Y-coordinate {m}
    15.450000000000;         !- Vertex 4 Z-coordinate {m}

Shading:Building:Detailed,
    DD9B66,                  !- Name
    ,                        !- Transmittance Schedule Name
    4,                       !- Number of Vertices
    8.000000000000,          !- Vertex 1 X-coordinate {m}
    -3.600000000000,         !- Vertex 1 Y-coordinate {m}
    15.450000000000,         !- Vertex 1 Z-coordinate {m}
    8.000000000000,          !- Vertex 2 X-coordinate {m}
    -3.600000000000,         !- Vertex 2 Y-coordinate {m}
    14.250000000000,         !- Vertex 2 Z-coordinate {m}
    9.150000000000,          !- Vertex 3 X-coordinate {m}
    -3.600000000000,         !- Vertex 3 Y-coordinate {m}
    14.250000000000,         !- Vertex 3 Z-coordinate {m}
    9.150000000000,          !- Vertex 4 X-coordinate {m}
    -3.600000000000,         !- Vertex 4 Y-coordinate {m}
    15.450000000000;         !- Vertex 4 Z-coordinate {m}

Shading:Building:Detailed,
    606D30,                  !- Name
    ,                        !- Transmittance Schedule Name
    4,                       !- Number of Vertices
    9.150000000000,          !- Vertex 1 X-coordinate {m}
    -3.600000000000,         !- Vertex 1 Y-coordinate {m}
    15.450000000000,         !- Vertex 1 Z-coordinate {m}
    9.150000000000,          !- Vertex 2 X-coordinate {m}
    -3.600000000000,         !- Vertex 2 Y-coordinate {m}
    14.250000000000,         !- Vertex 2 Z-coordinate {m}
    9.150000000000,          !- Vertex 3 X-coordinate {m}
    -4.600000000000,         !- Vertex 3 Y-coordinate {m}
    14.250000000000,         !- Vertex 3 Z-coordinate {m}
    9.150000000000,          !- Vertex 4 X-coordinate {m}
    -4.600000000000,         !- Vertex 4 Y-coordinate {m}
    15.450000000000;         !- Vertex 4 Z-coordinate {m}

Shading:Building:Detailed,
    DC0E93,                  !- Name
    ,                        !- Transmittance Schedule Name
    4,                       !- Number of Vertices
    9.150000000000,          !- Vertex 1 X-coordinate {m}
    -4.600000000000,         !- Vertex 1 Y-coordinate {m}
    15.450000000000,         !- Vertex 1 Z-coordinate {m}
    9.150000000000,          !- Vertex 2 X-coordinate {m}
    -4.600000000000,         !- Vertex 2 Y-coordinate {m}
    14.250000000000,         !- Vertex 2 Z-coordinate {m}
    9.700000000000,          !- Vertex 3 X-coordinate {m}
    -4.600000000000,         !- Vertex 3 Y-coordinate {m}
    14.250000000000,         !- Vertex 3 Z-coordinate {m}
    9.700000000000,          !- Vertex 4 X-coordinate {m}
    -4.600000000000,         !- Vertex 4 Y-coordinate {m}
    15.450000000000;         !- Vertex 4 Z-coordinate {m}

Shading:Building:Detailed,
    B7150B,                  !- Name
    ,                        !- Transmittance Schedule Name
    4,                       !- Number of Vertices
    9.700000000000,          !- Vertex 1 X-coordinate {m}
    -4.600000000000,         !- Vertex 1 Y-coordinate {m}
    15.450000000000,         !- Vertex 1 Z-coordinate {m}
    9.700000000000,          !- Vertex 2 X-coordinate {m}
    -4.600000000000,         !- Vertex 2 Y-coordinate {m}
    14.250000000000,         !- Vertex 2 Z-coordinate {m}
    9.700000000000,          !- Vertex 3 X-coordinate {m}
    -5.550000000000,         !- Vertex 3 Y-coordinate {m}
    14.250000000000,         !- Vertex 3 Z-coordinate {m}
    9.700000000000,          !- Vertex 4 X-coordinate {m}
    -5.550000000000,         !- Vertex 4 Y-coordinate {m}
    15.450000000000;         !- Vertex 4 Z-coordinate {m}

Shading:Building:Detailed,
    CEC63A,                  !- Name
    ,                        !- Transmittance Schedule Name
    4,                       !- Number of Vertices
    9.700000000000,          !- Vertex 1 X-coordinate {m}
    -5.550000000000,         !- Vertex 1 Y-coordinate {m}
    15.450000000000,         !- Vertex 1 Z-coordinate {m}
    9.700000000000,          !- Vertex 2 X-coordinate {m}
    -5.550000000000,         !- Vertex 2 Y-coordinate {m}
    14.250000000000,         !- Vertex 2 Z-coordinate {m}
    11.350000000000,         !- Vertex 3 X-coordinate {m}
    -5.550000000000,         !- Vertex 3 Y-coordinate {m}
    14.250000000000,         !- Vertex 3 Z-coordinate {m}
    11.350000000000,         !- Vertex 4 X-coordinate {m}
    -5.550000000000,         !- Vertex 4 Y-coordinate {m}
    15.450000000000;         !- Vertex 4 Z-coordinate {m}

Shading:Building:Detailed,
    B48F19,                  !- Name
    ,                        !- Transmittance Schedule Name
    4,                       !- Number of Vertices
    11.350000000000,         !- Vertex 1 X-coordinate {m}
    -5.550000000000,         !- Vertex 1 Y-coordinate {m}
    15.450000000000,         !- Vertex 1 Z-coordinate {m}
    11.350000000000,         !- Vertex 2 X-coordinate {m}
    -5.550000000000,         !- Vertex 2 Y-coordinate {m}
    14.250000000000,         !- Vertex 2 Z-coordinate {m}
    11.350000000000,         !- Vertex 3 X-coordinate {m}
    -6.750000000000,         !- Vertex 3 Y-coordinate {m}
    14.250000000000,         !- Vertex 3 Z-coordinate {m}
    11.350000000000,         !- Vertex 4 X-coordinate {m}
    -6.750000000000,         !- Vertex 4 Y-coordinate {m}
    15.450000000000;         !- Vertex 4 Z-coordinate {m}

Shading:Building:Detailed,
    517C13,                  !- Name
    ,                        !- Transmittance Schedule Name
    4,                       !- Number of Vertices
    11.350000000000,         !- Vertex 1 X-coordinate {m}
    -6.750000000000,         !- Vertex 1 Y-coordinate {m}
    15.450000000000,         !- Vertex 1 Z-coordinate {m}
    11.350000000000,         !- Vertex 2 X-coordinate {m}
    -6.750000000000,         !- Vertex 2 Y-coordinate {m}
    14.250000000000,         !- Vertex 2 Z-coordinate {m}
    17.150000000000,         !- Vertex 3 X-coordinate {m}
    -6.750000000000,         !- Vertex 3 Y-coordinate {m}
    14.250000000000,         !- Vertex 3 Z-coordinate {m}
    17.150000000000,         !- Vertex 4 X-coordinate {m}
    -6.750000000000,         !- Vertex 4 Y-coordinate {m}
    15.450000000000;         !- Vertex 4 Z-coordinate {m}

Shading:Building:Detailed,
    C2146C,                  !- Name
    ,                        !- Transmittance Schedule Name
    4,                       !- Number of Vertices
    0.000000000000,          !- Vertex 1 X-coordinate {m}
    6.750000000000,          !- Vertex 1 Y-coordinate {m}
    15.450000000000,         !- Vertex 1 Z-coordinate {m}
    0.000000000000,          !- Vertex 2 X-coordinate {m}
    6.750000000000,          !- Vertex 2 Y-coordinate {m}
    14.250000000000,         !- Vertex 2 Z-coordinate {m}
    0.000000000000,          !- Vertex 3 X-coordinate {m}
    0.950000000000,          !- Vertex 3 Y-coordinate {m}
    14.250000000000,         !- Vertex 3 Z-coordinate {m}
    0.000000000000,          !- Vertex 4 X-coordinate {m}
    0.950000000000,          !- Vertex 4 Y-coordinate {m}
    15.450000000000;         !- Vertex 4 Z-coordinate {m}

Shading:Building:Detailed,
    D03C03,                  !- Name
    ,                        !- Transmittance Schedule Name
    4,                       !- Number of Vertices
    0.000000000000,          !- Vertex 1 X-coordinate {m}
    -0.950000000000,         !- Vertex 1 Y-coordinate {m}
    15.450000000000,         !- Vertex 1 Z-coordinate {m}
    0.000000000000,          !- Vertex 2 X-coordinate {m}
    -0.950000000000,         !- Vertex 2 Y-coordinate {m}
    14.250000000000,         !- Vertex 2 Z-coordinate {m}
    0.000000000000,          !- Vertex 3 X-coordinate {m}
    -6.750000000000,         !- Vertex 3 Y-coordinate {m}
    14.250000000000,         !- Vertex 3 Z-coordinate {m}
    0.000000000000,          !- Vertex 4 X-coordinate {m}
    -6.750000000000,         !- Vertex 4 Y-coordinate {m}
    15.450000000000;         !- Vertex 4 Z-coordinate {m}

Shading:Building:Detailed,
    495B1F,                  !- Name
    ,                        !- Transmittance Schedule Name
    4,                       !- Number of Vertices
    0.000000000000,          !- Vertex 1 X-coordinate {m}
    0.950000000000,          !- Vertex 1 Y-coordinate {m}
    15.450000000000,         !- Vertex 1 Z-coordinate {m}
    0.000000000000,          !- Vertex 2 X-coordinate {m}
    0.950000000000,          !- Vertex 2 Y-coordinate {m}
    14.250000000000,         !- Vertex 2 Z-coordinate {m}
    1.350000000000,          !- Vertex 3 X-coordinate {m}
    0.950000000000,          !- Vertex 3 Y-coordinate {m}
    14.250000000000,         !- Vertex 3 Z-coordinate {m}
    1.350000000000,          !- Vertex 4 X-coordinate {m}
    0.950000000000,          !- Vertex 4 Y-coordinate {m}
    15.450000000000;         !- Vertex 4 Z-coordinate {m}

Shading:Building:Detailed,
    EB9F92,                  !- Name
    ,                        !- Transmittance Schedule Name
    4,                       !- Number of Vertices
    1.350000000000,          !- Vertex 1 X-coordinate {m}
    0.950000000000,          !- Vertex 1 Y-coordinate {m}
    15.450000000000,         !- Vertex 1 Z-coordinate {m}
    1.350000000000,          !- Vertex 2 X-coordinate {m}
    0.950000000000,          !- Vertex 2 Y-coordinate {m}
    14.250000000000,         !- Vertex 2 Z-coordinate {m}
    1.350000000000,          !- Vertex 3 X-coordinate {m}
    -0.950000000000,         !- Vertex 3 Y-coordinate {m}
    14.250000000000,         !- Vertex 3 Z-coordinate {m}
    1.350000000000,          !- Vertex 4 X-coordinate {m}
    -0.950000000000,         !- Vertex 4 Y-coordinate {m}
    15.450000000000;         !- Vertex 4 Z-coordinate {m}

Shading:Building:Detailed,
    6D9ACE,                  !- Name
    ,                        !- Transmittance Schedule Name
    4,                       !- Number of Vertices
    1.350000000000,          !- Vertex 1 X-coordinate {m}
    -0.950000000000,         !- Vertex 1 Y-coordinate {m}
    15.450000000000,         !- Vertex 1 Z-coordinate {m}
    1.350000000000,          !- Vertex 2 X-coordinate {m}
    -0.950000000000,         !- Vertex 2 Y-coordinate {m}
    14.250000000000,         !- Vertex 2 Z-coordinate {m}
    0.000000000000,          !- Vertex 3 X-coordinate {m}
    -0.950000000000,         !- Vertex 3 Y-coordinate {m}
    14.250000000000,         !- Vertex 3 Z-coordinate {m}
    0.000000000000,          !- Vertex 4 X-coordinate {m}
    -0.950000000000,         !- Vertex 4 Y-coordinate {m}
    15.450000000000;         !- Vertex 4 Z-coordinate {m}

Shading:Building:Detailed,
    6F28CC,                  !- Name
    ,                        !- Transmittance Schedule Name
    4,                       !- Number of Vertices
    0.000000000000,          !- Vertex 1 X-coordinate {m}
    0.950000000000,          !- Vertex 1 Y-coordinate {m}
    15.450000000000,         !- Vertex 1 Z-coordinate {m}
    0.000000000000,          !- Vertex 2 X-coordinate {m}
    0.950000000000,          !- Vertex 2 Y-coordinate {m}
    14.250000000000,         !- Vertex 2 Z-coordinate {m}
    1.350000000000,          !- Vertex 3 X-coordinate {m}
    0.950000000000,          !- Vertex 3 Y-coordinate {m}
    14.250000000000,         !- Vertex 3 Z-coordinate {m}
    1.350000000000,          !- Vertex 4 X-coordinate {m}
    0.950000000000,          !- Vertex 4 Y-coordinate {m}
    15.450000000000;         !- Vertex 4 Z-coordinate {m}

Shading:Building:Detailed,
    B2658A,                  !- Name
    ,                        !- Transmittance Schedule Name
    4,                       !- Number of Vertices
    1.350000000000,          !- Vertex 1 X-coordinate {m}
    0.950000000000,          !- Vertex 1 Y-coordinate {m}
    15.450000000000,         !- Vertex 1 Z-coordinate {m}
    1.350000000000,          !- Vertex 2 X-coordinate {m}
    0.950000000000,          !- Vertex 2 Y-coordinate {m}
    14.250000000000,         !- Vertex 2 Z-coordinate {m}
    1.350000000000,          !- Vertex 3 X-coordinate {m}
    -0.950000000000,         !- Vertex 3 Y-coordinate {m}
    14.250000000000,         !- Vertex 3 Z-coordinate {m}
    1.350000000000,          !- Vertex 4 X-coordinate {m}
    -0.950000000000,         !- Vertex 4 Y-coordinate {m}
    15.450000000000;         !- Vertex 4 Z-coordinate {m}

Shading:Building:Detailed,
    231A5D,                  !- Name
    ,                        !- Transmittance Schedule Name
    4,                       !- Number of Vertices
    1.350000000000,          !- Vertex 1 X-coordinate {m}
    -0.950000000000,         !- Vertex 1 Y-coordinate {m}
    15.450000000000,         !- Vertex 1 Z-coordinate {m}
    1.350000000000,          !- Vertex 2 X-coordinate {m}
    -0.950000000000,         !- Vertex 2 Y-coordinate {m}
    14.250000000000,         !- Vertex 2 Z-coordinate {m}
    0.000000000000,          !- Vertex 3 X-coordinate {m}
    -0.950000000000,         !- Vertex 3 Y-coordinate {m}
    14.250000000000,         !- Vertex 3 Z-coordinate {m}
    0.000000000000,          !- Vertex 4 X-coordinate {m}
    -0.950000000000,         !- Vertex 4 Y-coordinate {m}
    15.450000000000;         !- Vertex 4 Z-coordinate {m}

Shading:Building:Detailed,
    159420,                  !- Name
    ,                        !- Transmittance Schedule Name
    4,                       !- Number of Vertices
    0.000000000000,          !- Vertex 1 X-coordinate {m}
    -0.950000000000,         !- Vertex 1 Y-coordinate {m}
    15.450000000000,         !- Vertex 1 Z-coordinate {m}
    0.000000000000,          !- Vertex 2 X-coordinate {m}
    -0.950000000000,         !- Vertex 2 Y-coordinate {m}
    14.250000000000,         !- Vertex 2 Z-coordinate {m}
    0.000000000000,          !- Vertex 3 X-coordinate {m}
    -6.750000000000,         !- Vertex 3 Y-coordinate {m}
    14.250000000000,         !- Vertex 3 Z-coordinate {m}
    0.000000000000,          !- Vertex 4 X-coordinate {m}
    -6.750000000000,         !- Vertex 4 Y-coordinate {m}
    15.450000000000;         !- Vertex 4 Z-coordinate {m}

Shading:Building:Detailed,
    826857,                  !- Name
    ,                        !- Transmittance Schedule Name
    4,                       !- Number of Vertices
    0.000000000000,          !- Vertex 1 X-coordinate {m}
    6.750000000000,          !- Vertex 1 Y-coordinate {m}
    15.450000000000,         !- Vertex 1 Z-coordinate {m}
    0.000000000000,          !- Vertex 2 X-coordinate {m}
    6.750000000000,          !- Vertex 2 Y-coordinate {m}
    14.250000000000,         !- Vertex 2 Z-coordinate {m}
    0.000000000000,          !- Vertex 3 X-coordinate {m}
    0.950000000000,          !- Vertex 3 Y-coordinate {m}
    14.250000000000,         !- Vertex 3 Z-coordinate {m}
    0.000000000000,          !- Vertex 4 X-coordinate {m}
    0.950000000000,          !- Vertex 4 Y-coordinate {m}
    15.450000000000;         !- Vertex 4 Z-coordinate {m}

Shading:Building:Detailed,
    E378DD,                  !- Name
    ,                        !- Transmittance Schedule Name
    4,                       !- Number of Vertices
    17.150000000000,         !- Vertex 1 X-coordinate {m}
    0.950000000000,          !- Vertex 1 Y-coordinate {m}
    15.450000000000,         !- Vertex 1 Z-coordinate {m}
    17.150000000000,         !- Vertex 2 X-coordinate {m}
    0.950000000000,          !- Vertex 2 Y-coordinate {m}
    14.250000000000,         !- Vertex 2 Z-coordinate {m}
    17.150000000000,         !- Vertex 3 X-coordinate {m}
    6.750000000000,          !- Vertex 3 Y-coordinate {m}
    14.250000000000,         !- Vertex 3 Z-coordinate {m}
    17.150000000000,         !- Vertex 4 X-coordinate {m}
    6.750000000000,          !- Vertex 4 Y-coordinate {m}
    15.450000000000;         !- Vertex 4 Z-coordinate {m}

Shading:Building:Detailed,
    3EC41B,                  !- Name
    ,                        !- Transmittance Schedule Name
    4,                       !- Number of Vertices
    17.150000000000,         !- Vertex 1 X-coordinate {m}
    -6.750000000000,         !- Vertex 1 Y-coordinate {m}
    15.450000000000,         !- Vertex 1 Z-coordinate {m}
    17.150000000000,         !- Vertex 2 X-coordinate {m}
    -6.750000000000,         !- Vertex 2 Y-coordinate {m}
    14.250000000000,         !- Vertex 2 Z-coordinate {m}
    17.150000000000,         !- Vertex 3 X-coordinate {m}
    -0.950000000000,         !- Vertex 3 Y-coordinate {m}
    14.250000000000,         !- Vertex 3 Z-coordinate {m}
    17.150000000000,         !- Vertex 4 X-coordinate {m}
    -0.950000000000,         !- Vertex 4 Y-coordinate {m}
    15.450000000000;         !- Vertex 4 Z-coordinate {m}

Shading:Building:Detailed,
    357CC8,                  !- Name
    ,                        !- Transmittance Schedule Name
    4,                       !- Number of Vertices
    17.150000000000,         !- Vertex 1 X-coordinate {m}
    -0.950000000000,         !- Vertex 1 Y-coordinate {m}
    15.450000000000,         !- Vertex 1 Z-coordinate {m}
    17.150000000000,         !- Vertex 2 X-coordinate {m}
    -0.950000000000,         !- Vertex 2 Y-coordinate {m}
    14.250000000000,         !- Vertex 2 Z-coordinate {m}
    15.800000000000,         !- Vertex 3 X-coordinate {m}
    -0.950000000000,         !- Vertex 3 Y-coordinate {m}
    14.250000000000,         !- Vertex 3 Z-coordinate {m}
    15.800000000000,         !- Vertex 4 X-coordinate {m}
    -0.950000000000,         !- Vertex 4 Y-coordinate {m}
    15.450000000000;         !- Vertex 4 Z-coordinate {m}

Shading:Building:Detailed,
    D222E7,                  !- Name
    ,                        !- Transmittance Schedule Name
    4,                       !- Number of Vertices
    15.800000000000,         !- Vertex 1 X-coordinate {m}
    -0.950000000000,         !- Vertex 1 Y-coordinate {m}
    15.450000000000,         !- Vertex 1 Z-coordinate {m}
    15.800000000000,         !- Vertex 2 X-coordinate {m}
    -0.950000000000,         !- Vertex 2 Y-coordinate {m}
    14.250000000000,         !- Vertex 2 Z-coordinate {m}
    15.800000000000,         !- Vertex 3 X-coordinate {m}
    0.950000000000,          !- Vertex 3 Y-coordinate {m}
    14.250000000000,         !- Vertex 3 Z-coordinate {m}
    15.800000000000,         !- Vertex 4 X-coordinate {m}
    0.950000000000,          !- Vertex 4 Y-coordinate {m}
    15.450000000000;         !- Vertex 4 Z-coordinate {m}

Shading:Building:Detailed,
    BA52B0,                  !- Name
    ,                        !- Transmittance Schedule Name
    4,                       !- Number of Vertices
    15.800000000000,         !- Vertex 1 X-coordinate {m}
    0.950000000000,          !- Vertex 1 Y-coordinate {m}
    15.450000000000,         !- Vertex 1 Z-coordinate {m}
    15.800000000000,         !- Vertex 2 X-coordinate {m}
    0.950000000000,          !- Vertex 2 Y-coordinate {m}
    14.250000000000,         !- Vertex 2 Z-coordinate {m}
    17.150000000000,         !- Vertex 3 X-coordinate {m}
    0.950000000000,          !- Vertex 3 Y-coordinate {m}
    14.250000000000,         !- Vertex 3 Z-coordinate {m}
    17.150000000000,         !- Vertex 4 X-coordinate {m}
    0.950000000000,          !- Vertex 4 Y-coordinate {m}
    15.450000000000;         !- Vertex 4 Z-coordinate {m}

Shading:Building:Detailed,
    92D626,                  !- Name
    ,                        !- Transmittance Schedule Name
    4,                       !- Number of Vertices
    17.150000000000,         !- Vertex 1 X-coordinate {m}
    -11.750000000000,        !- Vertex 1 Y-coordinate {m}
    15.450000000000,         !- Vertex 1 Z-coordinate {m}
    17.150000000000,         !- Vertex 2 X-coordinate {m}
    -11.750000000000,        !- Vertex 2 Y-coordinate {m}
    0.000000000000,          !- Vertex 2 Z-coordinate {m}
    0.000000000000,          !- Vertex 3 X-coordinate {m}
    -11.750000000000,        !- Vertex 3 Y-coordinate {m}
    0.000000000000,          !- Vertex 3 Z-coordinate {m}
    0.000000000000,          !- Vertex 4 X-coordinate {m}
    -11.750000000000,        !- Vertex 4 Y-coordinate {m}
    15.450000000000;         !- Vertex 4 Z-coordinate {m}

Shading:Building:Detailed,
    83C082,                  !- Name
    ,                        !- Transmittance Schedule Name
    4,                       !- Number of Vertices
    17.150000000000,         !- Vertex 1 X-coordinate {m}
    -25.250000000000,        !- Vertex 1 Y-coordinate {m}
    15.450000000000,         !- Vertex 1 Z-coordinate {m}
    17.150000000000,         !- Vertex 2 X-coordinate {m}
    -25.250000000000,        !- Vertex 2 Y-coordinate {m}
    0.000000000000,          !- Vertex 2 Z-coordinate {m}
    17.150000000000,         !- Vertex 3 X-coordinate {m}
    -11.750000000000,        !- Vertex 3 Y-coordinate {m}
    0.000000000000,          !- Vertex 3 Z-coordinate {m}
    17.150000000000,         !- Vertex 4 X-coordinate {m}
    -11.750000000000,        !- Vertex 4 Y-coordinate {m}
    15.450000000000;         !- Vertex 4 Z-coordinate {m}

Shading:Building:Detailed,
    F97717,                  !- Name
    ,                        !- Transmittance Schedule Name
    4,                       !- Number of Vertices
    0.000000000000,          !- Vertex 1 X-coordinate {m}
    -25.250000000000,        !- Vertex 1 Y-coordinate {m}
    15.450000000000,         !- Vertex 1 Z-coordinate {m}
    0.000000000000,          !- Vertex 2 X-coordinate {m}
    -25.250000000000,        !- Vertex 2 Y-coordinate {m}
    0.000000000000,          !- Vertex 2 Z-coordinate {m}
    17.150000000000,         !- Vertex 3 X-coordinate {m}
    -25.250000000000,        !- Vertex 3 Y-coordinate {m}
    0.000000000000,          !- Vertex 3 Z-coordinate {m}
    17.150000000000,         !- Vertex 4 X-coordinate {m}
    -25.250000000000,        !- Vertex 4 Y-coordinate {m}
    15.450000000000;         !- Vertex 4 Z-coordinate {m}

Shading:Building:Detailed,
    CC84D0,                  !- Name
    ,                        !- Transmittance Schedule Name
    4,                       !- Number of Vertices
    0.000000000000,          !- Vertex 1 X-coordinate {m}
    -11.750000000000,        !- Vertex 1 Y-coordinate {m}
    15.450000000000,         !- Vertex 1 Z-coordinate {m}
    0.000000000000,          !- Vertex 2 X-coordinate {m}
    -25.250000000000,        !- Vertex 2 Y-coordinate {m}
    15.450000000000,         !- Vertex 2 Z-coordinate {m}
    17.150000000000,         !- Vertex 3 X-coordinate {m}
    -25.250000000000,        !- Vertex 3 Y-coordinate {m}
    15.450000000000,         !- Vertex 3 Z-coordinate {m}
    17.150000000000,         !- Vertex 4 X-coordinate {m}
    -11.750000000000,        !- Vertex 4 Y-coordinate {m}
    15.450000000000;         !- Vertex 4 Z-coordinate {m}

Shading:Building:Detailed,
    F0ED54,                  !- Name
    ,                        !- Transmittance Schedule Name
    4,                       !- Number of Vertices
    17.150000000000,         !- Vertex 1 X-coordinate {m}
    -11.750000000000,        !- Vertex 1 Y-coordinate {m}
    0.000000000000,          !- Vertex 1 Z-coordinate {m}
    17.150000000000,         !- Vertex 2 X-coordinate {m}
    -25.250000000000,        !- Vertex 2 Y-coordinate {m}
    0.000000000000,          !- Vertex 2 Z-coordinate {m}
    0.000000000000,          !- Vertex 3 X-coordinate {m}
    -25.250000000000,        !- Vertex 3 Y-coordinate {m}
    0.000000000000,          !- Vertex 3 Z-coordinate {m}
    0.000000000000,          !- Vertex 4 X-coordinate {m}
    -11.750000000000,        !- Vertex 4 Y-coordinate {m}
    0.000000000000;          !- Vertex 4 Z-coordinate {m}

Shading:Building:Detailed,
    DF631D,                  !- Name
    ,                        !- Transmittance Schedule Name
    4,                       !- Number of Vertices
    0.000000000000,          !- Vertex 1 X-coordinate {m}
    -11.750000000000,        !- Vertex 1 Y-coordinate {m}
    15.450000000000,         !- Vertex 1 Z-coordinate {m}
    0.000000000000,          !- Vertex 2 X-coordinate {m}
    -11.750000000000,        !- Vertex 2 Y-coordinate {m}
    0.000000000000,          !- Vertex 2 Z-coordinate {m}
    0.000000000000,          !- Vertex 3 X-coordinate {m}
    -25.250000000000,        !- Vertex 3 Y-coordinate {m}
    0.000000000000,          !- Vertex 3 Z-coordinate {m}
    0.000000000000,          !- Vertex 4 X-coordinate {m}
    -25.250000000000,        !- Vertex 4 Y-coordinate {m}
    15.450000000000;         !- Vertex 4 Z-coordinate {m}

Shading:Building:Detailed,
    32498F,                  !- Name
    ,                        !- Transmittance Schedule Name
    4,                       !- Number of Vertices
    -5.000000000000,         !- Vertex 1 X-coordinate {m}
    -11.750000000000,        !- Vertex 1 Y-coordinate {m}
    15.450000000000,         !- Vertex 1 Z-coordinate {m}
    -5.000000000000,         !- Vertex 2 X-coordinate {m}
    -11.750000000000,        !- Vertex 2 Y-coordinate {m}
    0.000000000000,          !- Vertex 2 Z-coordinate {m}
    -22.150000000000,        !- Vertex 3 X-coordinate {m}
    -11.750000000000,        !- Vertex 3 Y-coordinate {m}
    0.000000000000,          !- Vertex 3 Z-coordinate {m}
    -22.150000000000,        !- Vertex 4 X-coordinate {m}
    -11.750000000000,        !- Vertex 4 Y-coordinate {m}
    15.450000000000;         !- Vertex 4 Z-coordinate {m}

Shading:Building:Detailed,
    A61C61,                  !- Name
    ,                        !- Transmittance Schedule Name
    4,                       !- Number of Vertices
    -5.000000000000,         !- Vertex 1 X-coordinate {m}
    -25.250000000000,        !- Vertex 1 Y-coordinate {m}
    15.450000000000,         !- Vertex 1 Z-coordinate {m}
    -5.000000000000,         !- Vertex 2 X-coordinate {m}
    -25.250000000000,        !- Vertex 2 Y-coordinate {m}
    0.000000000000,          !- Vertex 2 Z-coordinate {m}
    -5.000000000000,         !- Vertex 3 X-coordinate {m}
    -11.750000000000,        !- Vertex 3 Y-coordinate {m}
    0.000000000000,          !- Vertex 3 Z-coordinate {m}
    -5.000000000000,         !- Vertex 4 X-coordinate {m}
    -11.750000000000,        !- Vertex 4 Y-coordinate {m}
    15.450000000000;         !- Vertex 4 Z-coordinate {m}

Shading:Building:Detailed,
    F6432A,                  !- Name
    ,                        !- Transmittance Schedule Name
    4,                       !- Number of Vertices
    -22.150000000000,        !- Vertex 1 X-coordinate {m}
    -25.250000000000,        !- Vertex 1 Y-coordinate {m}
    15.450000000000,         !- Vertex 1 Z-coordinate {m}
    -22.150000000000,        !- Vertex 2 X-coordinate {m}
    -25.250000000000,        !- Vertex 2 Y-coordinate {m}
    0.000000000000,          !- Vertex 2 Z-coordinate {m}
    -5.000000000000,         !- Vertex 3 X-coordinate {m}
    -25.250000000000,        !- Vertex 3 Y-coordinate {m}
    0.000000000000,          !- Vertex 3 Z-coordinate {m}
    -5.000000000000,         !- Vertex 4 X-coordinate {m}
    -25.250000000000,        !- Vertex 4 Y-coordinate {m}
    15.450000000000;         !- Vertex 4 Z-coordinate {m}

Shading:Building:Detailed,
    39C75A,                  !- Name
    ,                        !- Transmittance Schedule Name
    4,                       !- Number of Vertices
    -22.150000000000,        !- Vertex 1 X-coordinate {m}
    -11.750000000000,        !- Vertex 1 Y-coordinate {m}
    15.450000000000,         !- Vertex 1 Z-coordinate {m}
    -22.150000000000,        !- Vertex 2 X-coordinate {m}
    -25.250000000000,        !- Vertex 2 Y-coordinate {m}
    15.450000000000,         !- Vertex 2 Z-coordinate {m}
    -5.000000000000,         !- Vertex 3 X-coordinate {m}
    -25.250000000000,        !- Vertex 3 Y-coordinate {m}
    15.450000000000,         !- Vertex 3 Z-coordinate {m}
    -5.000000000000,         !- Vertex 4 X-coordinate {m}
    -11.750000000000,        !- Vertex 4 Y-coordinate {m}
    15.450000000000;         !- Vertex 4 Z-coordinate {m}

Shading:Building:Detailed,
    B0D67B,                  !- Name
    ,                        !- Transmittance Schedule Name
    4,                       !- Number of Vertices
    -5.000000000000,         !- Vertex 1 X-coordinate {m}
    -11.750000000000,        !- Vertex 1 Y-coordinate {m}
    0.000000000000,          !- Vertex 1 Z-coordinate {m}
    -5.000000000000,         !- Vertex 2 X-coordinate {m}
    -25.250000000000,        !- Vertex 2 Y-coordinate {m}
    0.000000000000,          !- Vertex 2 Z-coordinate {m}
    -22.150000000000,        !- Vertex 3 X-coordinate {m}
    -25.250000000000,        !- Vertex 3 Y-coordinate {m}
    0.000000000000,          !- Vertex 3 Z-coordinate {m}
    -22.150000000000,        !- Vertex 4 X-coordinate {m}
    -11.750000000000,        !- Vertex 4 Y-coordinate {m}
    0.000000000000;          !- Vertex 4 Z-coordinate {m}

Shading:Building:Detailed,
    3ADD33,                  !- Name
    ,                        !- Transmittance Schedule Name
    4,                       !- Number of Vertices
    -22.150000000000,        !- Vertex 1 X-coordinate {m}
    -11.750000000000,        !- Vertex 1 Y-coordinate {m}
    15.450000000000,         !- Vertex 1 Z-coordinate {m}
    -22.150000000000,        !- Vertex 2 X-coordinate {m}
    -11.750000000000,        !- Vertex 2 Y-coordinate {m}
    0.000000000000,          !- Vertex 2 Z-coordinate {m}
    -22.150000000000,        !- Vertex 3 X-coordinate {m}
    -25.250000000000,        !- Vertex 3 Y-coordinate {m}
    0.000000000000,          !- Vertex 3 Z-coordinate {m}
    -22.150000000000,        !- Vertex 4 X-coordinate {m}
    -25.250000000000,        !- Vertex 4 Y-coordinate {m}
    15.450000000000;         !- Vertex 4 Z-coordinate {m}

Shading:Building:Detailed,
    FE7711,                  !- Name
    ,                        !- Transmittance Schedule Name
    4,                       !- Number of Vertices
    39.300000000000,         !- Vertex 1 X-coordinate {m}
    -11.750000000000,        !- Vertex 1 Y-coordinate {m}
    15.450000000000,         !- Vertex 1 Z-coordinate {m}
    39.300000000000,         !- Vertex 2 X-coordinate {m}
    -11.750000000000,        !- Vertex 2 Y-coordinate {m}
    0.000000000000,          !- Vertex 2 Z-coordinate {m}
    22.150000000000,         !- Vertex 3 X-coordinate {m}
    -11.750000000000,        !- Vertex 3 Y-coordinate {m}
    0.000000000000,          !- Vertex 3 Z-coordinate {m}
    22.150000000000,         !- Vertex 4 X-coordinate {m}
    -11.750000000000,        !- Vertex 4 Y-coordinate {m}
    15.450000000000;         !- Vertex 4 Z-coordinate {m}

Shading:Building:Detailed,
    AD9E64,                  !- Name
    ,                        !- Transmittance Schedule Name
    4,                       !- Number of Vertices
    39.300000000000,         !- Vertex 1 X-coordinate {m}
    -25.250000000000,        !- Vertex 1 Y-coordinate {m}
    15.450000000000,         !- Vertex 1 Z-coordinate {m}
    39.300000000000,         !- Vertex 2 X-coordinate {m}
    -25.250000000000,        !- Vertex 2 Y-coordinate {m}
    0.000000000000,          !- Vertex 2 Z-coordinate {m}
    39.300000000000,         !- Vertex 3 X-coordinate {m}
    -11.750000000000,        !- Vertex 3 Y-coordinate {m}
    0.000000000000,          !- Vertex 3 Z-coordinate {m}
    39.300000000000,         !- Vertex 4 X-coordinate {m}
    -11.750000000000,        !- Vertex 4 Y-coordinate {m}
    15.450000000000;         !- Vertex 4 Z-coordinate {m}

Shading:Building:Detailed,
    6E76A5,                  !- Name
    ,                        !- Transmittance Schedule Name
    4,                       !- Number of Vertices
    22.150000000000,         !- Vertex 1 X-coordinate {m}
    -25.250000000000,        !- Vertex 1 Y-coordinate {m}
    15.450000000000,         !- Vertex 1 Z-coordinate {m}
    22.150000000000,         !- Vertex 2 X-coordinate {m}
    -25.250000000000,        !- Vertex 2 Y-coordinate {m}
    0.000000000000,          !- Vertex 2 Z-coordinate {m}
    39.300000000000,         !- Vertex 3 X-coordinate {m}
    -25.250000000000,        !- Vertex 3 Y-coordinate {m}
    0.000000000000,          !- Vertex 3 Z-coordinate {m}
    39.300000000000,         !- Vertex 4 X-coordinate {m}
    -25.250000000000,        !- Vertex 4 Y-coordinate {m}
    15.450000000000;         !- Vertex 4 Z-coordinate {m}

Shading:Building:Detailed,
    FB5E9D,                  !- Name
    ,                        !- Transmittance Schedule Name
    4,                       !- Number of Vertices
    22.150000000000,         !- Vertex 1 X-coordinate {m}
    -11.750000000000,        !- Vertex 1 Y-coordinate {m}
    15.450000000000,         !- Vertex 1 Z-coordinate {m}
    22.150000000000,         !- Vertex 2 X-coordinate {m}
    -25.250000000000,        !- Vertex 2 Y-coordinate {m}
    15.450000000000,         !- Vertex 2 Z-coordinate {m}
    39.300000000000,         !- Vertex 3 X-coordinate {m}
    -25.250000000000,        !- Vertex 3 Y-coordinate {m}
    15.450000000000,         !- Vertex 3 Z-coordinate {m}
    39.300000000000,         !- Vertex 4 X-coordinate {m}
    -11.750000000000,        !- Vertex 4 Y-coordinate {m}
    15.450000000000;         !- Vertex 4 Z-coordinate {m}

Shading:Building:Detailed,
    905BD8,                  !- Name
    ,                        !- Transmittance Schedule Name
    4,                       !- Number of Vertices
    39.300000000000,         !- Vertex 1 X-coordinate {m}
    -11.750000000000,        !- Vertex 1 Y-coordinate {m}
    0.000000000000,          !- Vertex 1 Z-coordinate {m}
    39.300000000000,         !- Vertex 2 X-coordinate {m}
    -25.250000000000,        !- Vertex 2 Y-coordinate {m}
    0.000000000000,          !- Vertex 2 Z-coordinate {m}
    22.150000000000,         !- Vertex 3 X-coordinate {m}
    -25.250000000000,        !- Vertex 3 Y-coordinate {m}
    0.000000000000,          !- Vertex 3 Z-coordinate {m}
    22.150000000000,         !- Vertex 4 X-coordinate {m}
    -11.750000000000,        !- Vertex 4 Y-coordinate {m}
    0.000000000000;          !- Vertex 4 Z-coordinate {m}

Shading:Building:Detailed,
    8A30A6,                  !- Name
    ,                        !- Transmittance Schedule Name
    4,                       !- Number of Vertices
    22.150000000000,         !- Vertex 1 X-coordinate {m}
    -11.750000000000,        !- Vertex 1 Y-coordinate {m}
    15.450000000000,         !- Vertex 1 Z-coordinate {m}
    22.150000000000,         !- Vertex 2 X-coordinate {m}
    -11.750000000000,        !- Vertex 2 Y-coordinate {m}
    0.000000000000,          !- Vertex 2 Z-coordinate {m}
    22.150000000000,         !- Vertex 3 X-coordinate {m}
    -25.250000000000,        !- Vertex 3 Y-coordinate {m}
    0.000000000000,          !- Vertex 3 Z-coordinate {m}
    22.150000000000,         !- Vertex 4 X-coordinate {m}
    -25.250000000000,        !- Vertex 4 Y-coordinate {m}
    15.450000000000;         !- Vertex 4 Z-coordinate {m}

Shading:Building:Detailed,
    C07A13,                  !- Name
    ,                        !- Transmittance Schedule Name
    4,                       !- Number of Vertices
    39.300000000000,         !- Vertex 1 X-coordinate {m}
    6.750000000000,          !- Vertex 1 Y-coordinate {m}
    15.450000000000,         !- Vertex 1 Z-coordinate {m}
    39.300000000000,         !- Vertex 2 X-coordinate {m}
    6.750000000000,          !- Vertex 2 Y-coordinate {m}
    0.000000000000,          !- Vertex 2 Z-coordinate {m}
    22.150000000000,         !- Vertex 3 X-coordinate {m}
    6.750000000000,          !- Vertex 3 Y-coordinate {m}
    0.000000000000,          !- Vertex 3 Z-coordinate {m}
    22.150000000000,         !- Vertex 4 X-coordinate {m}
    6.750000000000,          !- Vertex 4 Y-coordinate {m}
    15.450000000000;         !- Vertex 4 Z-coordinate {m}

Shading:Building:Detailed,
    2CF6EA,                  !- Name
    ,                        !- Transmittance Schedule Name
    4,                       !- Number of Vertices
    39.300000000000,         !- Vertex 1 X-coordinate {m}
    -6.750000000000,         !- Vertex 1 Y-coordinate {m}
    15.450000000000,         !- Vertex 1 Z-coordinate {m}
    39.300000000000,         !- Vertex 2 X-coordinate {m}
    -6.750000000000,         !- Vertex 2 Y-coordinate {m}
    0.000000000000,          !- Vertex 2 Z-coordinate {m}
    39.300000000000,         !- Vertex 3 X-coordinate {m}
    6.750000000000,          !- Vertex 3 Y-coordinate {m}
    0.000000000000,          !- Vertex 3 Z-coordinate {m}
    39.300000000000,         !- Vertex 4 X-coordinate {m}
    6.750000000000,          !- Vertex 4 Y-coordinate {m}
    15.450000000000;         !- Vertex 4 Z-coordinate {m}

Shading:Building:Detailed,
    802117,                  !- Name
    ,                        !- Transmittance Schedule Name
    4,                       !- Number of Vertices
    22.150000000000,         !- Vertex 1 X-coordinate {m}
    -6.750000000000,         !- Vertex 1 Y-coordinate {m}
    15.450000000000,         !- Vertex 1 Z-coordinate {m}
    22.150000000000,         !- Vertex 2 X-coordinate {m}
    -6.750000000000,         !- Vertex 2 Y-coordinate {m}
    0.000000000000,          !- Vertex 2 Z-coordinate {m}
    39.300000000000,         !- Vertex 3 X-coordinate {m}
    -6.750000000000,         !- Vertex 3 Y-coordinate {m}
    0.000000000000,          !- Vertex 3 Z-coordinate {m}
    39.300000000000,         !- Vertex 4 X-coordinate {m}
    -6.750000000000,         !- Vertex 4 Y-coordinate {m}
    15.450000000000;         !- Vertex 4 Z-coordinate {m}

Shading:Building:Detailed,
    139567,                  !- Name
    ,                        !- Transmittance Schedule Name
    4,                       !- Number of Vertices
    22.150000000000,         !- Vertex 1 X-coordinate {m}
    6.750000000000,          !- Vertex 1 Y-coordinate {m}
    15.450000000000,         !- Vertex 1 Z-coordinate {m}
    22.150000000000,         !- Vertex 2 X-coordinate {m}
    -6.750000000000,         !- Vertex 2 Y-coordinate {m}
    15.450000000000,         !- Vertex 2 Z-coordinate {m}
    39.300000000000,         !- Vertex 3 X-coordinate {m}
    -6.750000000000,         !- Vertex 3 Y-coordinate {m}
    15.450000000000,         !- Vertex 3 Z-coordinate {m}
    39.300000000000,         !- Vertex 4 X-coordinate {m}
    6.750000000000,          !- Vertex 4 Y-coordinate {m}
    15.450000000000;         !- Vertex 4 Z-coordinate {m}

Shading:Building:Detailed,
    EDEEAB,                  !- Name
    ,                        !- Transmittance Schedule Name
    4,                       !- Number of Vertices
    39.300000000000,         !- Vertex 1 X-coordinate {m}
    6.750000000000,          !- Vertex 1 Y-coordinate {m}
    0.000000000000,          !- Vertex 1 Z-coordinate {m}
    39.300000000000,         !- Vertex 2 X-coordinate {m}
    -6.750000000000,         !- Vertex 2 Y-coordinate {m}
    0.000000000000,          !- Vertex 2 Z-coordinate {m}
    22.150000000000,         !- Vertex 3 X-coordinate {m}
    -6.750000000000,         !- Vertex 3 Y-coordinate {m}
    0.000000000000,          !- Vertex 3 Z-coordinate {m}
    22.150000000000,         !- Vertex 4 X-coordinate {m}
    6.750000000000,          !- Vertex 4 Y-coordinate {m}
    0.000000000000;          !- Vertex 4 Z-coordinate {m}

Shading:Building:Detailed,
    884184,                  !- Name
    ,                        !- Transmittance Schedule Name
    4,                       !- Number of Vertices
    22.150000000000,         !- Vertex 1 X-coordinate {m}
    6.750000000000,          !- Vertex 1 Y-coordinate {m}
    15.450000000000,         !- Vertex 1 Z-coordinate {m}
    22.150000000000,         !- Vertex 2 X-coordinate {m}
    6.750000000000,          !- Vertex 2 Y-coordinate {m}
    0.000000000000,          !- Vertex 2 Z-coordinate {m}
    22.150000000000,         !- Vertex 3 X-coordinate {m}
    -6.750000000000,         !- Vertex 3 Y-coordinate {m}
    0.000000000000,          !- Vertex 3 Z-coordinate {m}
    22.150000000000,         !- Vertex 4 X-coordinate {m}
    -6.750000000000,         !- Vertex 4 Y-coordinate {m}
    15.450000000000;         !- Vertex 4 Z-coordinate {m}

Shading:Building:Detailed,
    C6B165,                  !- Name
    ,                        !- Transmittance Schedule Name
    4,                       !- Number of Vertices
    -5.000000000000,         !- Vertex 1 X-coordinate {m}
    6.750000000000,          !- Vertex 1 Y-coordinate {m}
    15.450000000000,         !- Vertex 1 Z-coordinate {m}
    -5.000000000000,         !- Vertex 2 X-coordinate {m}
    6.750000000000,          !- Vertex 2 Y-coordinate {m}
    0.000000000000,          !- Vertex 2 Z-coordinate {m}
    -22.150000000000,        !- Vertex 3 X-coordinate {m}
    6.750000000000,          !- Vertex 3 Y-coordinate {m}
    0.000000000000,          !- Vertex 3 Z-coordinate {m}
    -22.150000000000,        !- Vertex 4 X-coordinate {m}
    6.750000000000,          !- Vertex 4 Y-coordinate {m}
    15.450000000000;         !- Vertex 4 Z-coordinate {m}

Shading:Building:Detailed,
    84C8C3,                  !- Name
    ,                        !- Transmittance Schedule Name
    4,                       !- Number of Vertices
    -5.000000000000,         !- Vertex 1 X-coordinate {m}
    -6.750000000000,         !- Vertex 1 Y-coordinate {m}
    15.450000000000,         !- Vertex 1 Z-coordinate {m}
    -5.000000000000,         !- Vertex 2 X-coordinate {m}
    -6.750000000000,         !- Vertex 2 Y-coordinate {m}
    0.000000000000,          !- Vertex 2 Z-coordinate {m}
    -5.000000000000,         !- Vertex 3 X-coordinate {m}
    6.750000000000,          !- Vertex 3 Y-coordinate {m}
    0.000000000000,          !- Vertex 3 Z-coordinate {m}
    -5.000000000000,         !- Vertex 4 X-coordinate {m}
    6.750000000000,          !- Vertex 4 Y-coordinate {m}
    15.450000000000;         !- Vertex 4 Z-coordinate {m}

Shading:Building:Detailed,
    DBB2E8,                  !- Name
    ,                        !- Transmittance Schedule Name
    4,                       !- Number of Vertices
    -22.150000000000,        !- Vertex 1 X-coordinate {m}
    -6.750000000000,         !- Vertex 1 Y-coordinate {m}
    15.450000000000,         !- Vertex 1 Z-coordinate {m}
    -22.150000000000,        !- Vertex 2 X-coordinate {m}
    -6.750000000000,         !- Vertex 2 Y-coordinate {m}
    0.000000000000,          !- Vertex 2 Z-coordinate {m}
    -5.000000000000,         !- Vertex 3 X-coordinate {m}
    -6.750000000000,         !- Vertex 3 Y-coordinate {m}
    0.000000000000,          !- Vertex 3 Z-coordinate {m}
    -5.000000000000,         !- Vertex 4 X-coordinate {m}
    -6.750000000000,         !- Vertex 4 Y-coordinate {m}
    15.450000000000;         !- Vertex 4 Z-coordinate {m}

Shading:Building:Detailed,
    EBD2A9,                  !- Name
    ,                        !- Transmittance Schedule Name
    4,                       !- Number of Vertices
    -22.150000000000,        !- Vertex 1 X-coordinate {m}
    6.750000000000,          !- Vertex 1 Y-coordinate {m}
    15.450000000000,         !- Vertex 1 Z-coordinate {m}
    -22.150000000000,        !- Vertex 2 X-coordinate {m}
    -6.750000000000,         !- Vertex 2 Y-coordinate {m}
    15.450000000000,         !- Vertex 2 Z-coordinate {m}
    -5.000000000000,         !- Vertex 3 X-coordinate {m}
    -6.750000000000,         !- Vertex 3 Y-coordinate {m}
    15.450000000000,         !- Vertex 3 Z-coordinate {m}
    -5.000000000000,         !- Vertex 4 X-coordinate {m}
    6.750000000000,          !- Vertex 4 Y-coordinate {m}
    15.450000000000;         !- Vertex 4 Z-coordinate {m}

Shading:Building:Detailed,
    92883C,                  !- Name
    ,                        !- Transmittance Schedule Name
    4,                       !- Number of Vertices
    -5.000000000000,         !- Vertex 1 X-coordinate {m}
    6.750000000000,          !- Vertex 1 Y-coordinate {m}
    0.000000000000,          !- Vertex 1 Z-coordinate {m}
    -5.000000000000,         !- Vertex 2 X-coordinate {m}
    -6.750000000000,         !- Vertex 2 Y-coordinate {m}
    0.000000000000,          !- Vertex 2 Z-coordinate {m}
    -22.150000000000,        !- Vertex 3 X-coordinate {m}
    -6.750000000000,         !- Vertex 3 Y-coordinate {m}
    0.000000000000,          !- Vertex 3 Z-coordinate {m}
    -22.150000000000,        !- Vertex 4 X-coordinate {m}
    6.750000000000,          !- Vertex 4 Y-coordinate {m}
    0.000000000000;          !- Vertex 4 Z-coordinate {m}

Shading:Building:Detailed,
    745D2E,                  !- Name
    ,                        !- Transmittance Schedule Name
    4,                       !- Number of Vertices
    -22.150000000000,        !- Vertex 1 X-coordinate {m}
    6.750000000000,          !- Vertex 1 Y-coordinate {m}
    15.450000000000,         !- Vertex 1 Z-coordinate {m}
    -22.150000000000,        !- Vertex 2 X-coordinate {m}
    6.750000000000,          !- Vertex 2 Y-coordinate {m}
    0.000000000000,          !- Vertex 2 Z-coordinate {m}
    -22.150000000000,        !- Vertex 3 X-coordinate {m}
    -6.750000000000,         !- Vertex 3 Y-coordinate {m}
    0.000000000000,          !- Vertex 3 Z-coordinate {m}
    -22.150000000000,        !- Vertex 4 X-coordinate {m}
    -6.750000000000,         !- Vertex 4 Y-coordinate {m}
    15.450000000000;         !- Vertex 4 Z-coordinate {m}

Shading:Building:Detailed,
    F78E86,                  !- Name
    ,                        !- Transmittance Schedule Name
    4,                       !- Number of Vertices
    39.300000000000,         !- Vertex 1 X-coordinate {m}
    25.250000000000,         !- Vertex 1 Y-coordinate {m}
    15.450000000000,         !- Vertex 1 Z-coordinate {m}
    39.300000000000,         !- Vertex 2 X-coordinate {m}
    25.250000000000,         !- Vertex 2 Y-coordinate {m}
    0.000000000000,          !- Vertex 2 Z-coordinate {m}
    22.150000000000,         !- Vertex 3 X-coordinate {m}
    25.250000000000,         !- Vertex 3 Y-coordinate {m}
    0.000000000000,          !- Vertex 3 Z-coordinate {m}
    22.150000000000,         !- Vertex 4 X-coordinate {m}
    25.250000000000,         !- Vertex 4 Y-coordinate {m}
    15.450000000000;         !- Vertex 4 Z-coordinate {m}

Shading:Building:Detailed,
    B1443E,                  !- Name
    ,                        !- Transmittance Schedule Name
    4,                       !- Number of Vertices
    39.300000000000,         !- Vertex 1 X-coordinate {m}
    11.750000000000,         !- Vertex 1 Y-coordinate {m}
    15.450000000000,         !- Vertex 1 Z-coordinate {m}
    39.300000000000,         !- Vertex 2 X-coordinate {m}
    11.750000000000,         !- Vertex 2 Y-coordinate {m}
    0.000000000000,          !- Vertex 2 Z-coordinate {m}
    39.300000000000,         !- Vertex 3 X-coordinate {m}
    25.250000000000,         !- Vertex 3 Y-coordinate {m}
    0.000000000000,          !- Vertex 3 Z-coordinate {m}
    39.300000000000,         !- Vertex 4 X-coordinate {m}
    25.250000000000,         !- Vertex 4 Y-coordinate {m}
    15.450000000000;         !- Vertex 4 Z-coordinate {m}

Shading:Building:Detailed,
    E85389,                  !- Name
    ,                        !- Transmittance Schedule Name
    4,                       !- Number of Vertices
    22.150000000000,         !- Vertex 1 X-coordinate {m}
    11.750000000000,         !- Vertex 1 Y-coordinate {m}
    15.450000000000,         !- Vertex 1 Z-coordinate {m}
    22.150000000000,         !- Vertex 2 X-coordinate {m}
    11.750000000000,         !- Vertex 2 Y-coordinate {m}
    0.000000000000,          !- Vertex 2 Z-coordinate {m}
    39.300000000000,         !- Vertex 3 X-coordinate {m}
    11.750000000000,         !- Vertex 3 Y-coordinate {m}
    0.000000000000,          !- Vertex 3 Z-coordinate {m}
    39.300000000000,         !- Vertex 4 X-coordinate {m}
    11.750000000000,         !- Vertex 4 Y-coordinate {m}
    15.450000000000;         !- Vertex 4 Z-coordinate {m}

Shading:Building:Detailed,
    A1C20C,                  !- Name
    ,                        !- Transmittance Schedule Name
    4,                       !- Number of Vertices
    22.150000000000,         !- Vertex 1 X-coordinate {m}
    25.250000000000,         !- Vertex 1 Y-coordinate {m}
    15.450000000000,         !- Vertex 1 Z-coordinate {m}
    22.150000000000,         !- Vertex 2 X-coordinate {m}
    11.750000000000,         !- Vertex 2 Y-coordinate {m}
    15.450000000000,         !- Vertex 2 Z-coordinate {m}
    39.300000000000,         !- Vertex 3 X-coordinate {m}
    11.750000000000,         !- Vertex 3 Y-coordinate {m}
    15.450000000000,         !- Vertex 3 Z-coordinate {m}
    39.300000000000,         !- Vertex 4 X-coordinate {m}
    25.250000000000,         !- Vertex 4 Y-coordinate {m}
    15.450000000000;         !- Vertex 4 Z-coordinate {m}

Shading:Building:Detailed,
    33423F,                  !- Name
    ,                        !- Transmittance Schedule Name
    4,                       !- Number of Vertices
    39.300000000000,         !- Vertex 1 X-coordinate {m}
    25.250000000000,         !- Vertex 1 Y-coordinate {m}
    0.000000000000,          !- Vertex 1 Z-coordinate {m}
    39.300000000000,         !- Vertex 2 X-coordinate {m}
    11.750000000000,         !- Vertex 2 Y-coordinate {m}
    0.000000000000,          !- Vertex 2 Z-coordinate {m}
    22.150000000000,         !- Vertex 3 X-coordinate {m}
    11.750000000000,         !- Vertex 3 Y-coordinate {m}
    0.000000000000,          !- Vertex 3 Z-coordinate {m}
    22.150000000000,         !- Vertex 4 X-coordinate {m}
    25.250000000000,         !- Vertex 4 Y-coordinate {m}
    0.000000000000;          !- Vertex 4 Z-coordinate {m}

Shading:Building:Detailed,
    FDF3CF,                  !- Name
    ,                        !- Transmittance Schedule Name
    4,                       !- Number of Vertices
    22.150000000000,         !- Vertex 1 X-coordinate {m}
    25.250000000000,         !- Vertex 1 Y-coordinate {m}
    15.450000000000,         !- Vertex 1 Z-coordinate {m}
    22.150000000000,         !- Vertex 2 X-coordinate {m}
    25.250000000000,         !- Vertex 2 Y-coordinate {m}
    0.000000000000,          !- Vertex 2 Z-coordinate {m}
    22.150000000000,         !- Vertex 3 X-coordinate {m}
    11.750000000000,         !- Vertex 3 Y-coordinate {m}
    0.000000000000,          !- Vertex 3 Z-coordinate {m}
    22.150000000000,         !- Vertex 4 X-coordinate {m}
    11.750000000000,         !- Vertex 4 Y-coordinate {m}
    15.450000000000;         !- Vertex 4 Z-coordinate {m}

Shading:Building:Detailed,
    F11CC3,                  !- Name
    ,                        !- Transmittance Schedule Name
    4,                       !- Number of Vertices
    -5.000000000000,         !- Vertex 1 X-coordinate {m}
    25.250000000000,         !- Vertex 1 Y-coordinate {m}
    15.450000000000,         !- Vertex 1 Z-coordinate {m}
    -5.000000000000,         !- Vertex 2 X-coordinate {m}
    25.250000000000,         !- Vertex 2 Y-coordinate {m}
    0.000000000000,          !- Vertex 2 Z-coordinate {m}
    -22.150000000000,        !- Vertex 3 X-coordinate {m}
    25.250000000000,         !- Vertex 3 Y-coordinate {m}
    0.000000000000,          !- Vertex 3 Z-coordinate {m}
    -22.150000000000,        !- Vertex 4 X-coordinate {m}
    25.250000000000,         !- Vertex 4 Y-coordinate {m}
    15.450000000000;         !- Vertex 4 Z-coordinate {m}

Shading:Building:Detailed,
    C789C1,                  !- Name
    ,                        !- Transmittance Schedule Name
    4,                       !- Number of Vertices
    -5.000000000000,         !- Vertex 1 X-coordinate {m}
    11.750000000000,         !- Vertex 1 Y-coordinate {m}
    15.450000000000,         !- Vertex 1 Z-coordinate {m}
    -5.000000000000,         !- Vertex 2 X-coordinate {m}
    11.750000000000,         !- Vertex 2 Y-coordinate {m}
    0.000000000000,          !- Vertex 2 Z-coordinate {m}
    -5.000000000000,         !- Vertex 3 X-coordinate {m}
    25.250000000000,         !- Vertex 3 Y-coordinate {m}
    0.000000000000,          !- Vertex 3 Z-coordinate {m}
    -5.000000000000,         !- Vertex 4 X-coordinate {m}
    25.250000000000,         !- Vertex 4 Y-coordinate {m}
    15.450000000000;         !- Vertex 4 Z-coordinate {m}

Shading:Building:Detailed,
    830055,                  !- Name
    ,                        !- Transmittance Schedule Name
    4,                       !- Number of Vertices
    -22.150000000000,        !- Vertex 1 X-coordinate {m}
    11.750000000000,         !- Vertex 1 Y-coordinate {m}
    15.450000000000,         !- Vertex 1 Z-coordinate {m}
    -22.150000000000,        !- Vertex 2 X-coordinate {m}
    11.750000000000,         !- Vertex 2 Y-coordinate {m}
    0.000000000000,          !- Vertex 2 Z-coordinate {m}
    -5.000000000000,         !- Vertex 3 X-coordinate {m}
    11.750000000000,         !- Vertex 3 Y-coordinate {m}
    0.000000000000,          !- Vertex 3 Z-coordinate {m}
    -5.000000000000,         !- Vertex 4 X-coordinate {m}
    11.750000000000,         !- Vertex 4 Y-coordinate {m}
    15.450000000000;         !- Vertex 4 Z-coordinate {m}

Shading:Building:Detailed,
    C99203,                  !- Name
    ,                        !- Transmittance Schedule Name
    4,                       !- Number of Vertices
    -22.150000000000,        !- Vertex 1 X-coordinate {m}
    25.250000000000,         !- Vertex 1 Y-coordinate {m}
    15.450000000000,         !- Vertex 1 Z-coordinate {m}
    -22.150000000000,        !- Vertex 2 X-coordinate {m}
    11.750000000000,         !- Vertex 2 Y-coordinate {m}
    15.450000000000,         !- Vertex 2 Z-coordinate {m}
    -5.000000000000,         !- Vertex 3 X-coordinate {m}
    11.750000000000,         !- Vertex 3 Y-coordinate {m}
    15.450000000000,         !- Vertex 3 Z-coordinate {m}
    -5.000000000000,         !- Vertex 4 X-coordinate {m}
    25.250000000000,         !- Vertex 4 Y-coordinate {m}
    15.450000000000;         !- Vertex 4 Z-coordinate {m}

Shading:Building:Detailed,
    95674B,                  !- Name
    ,                        !- Transmittance Schedule Name
    4,                       !- Number of Vertices
    -5.000000000000,         !- Vertex 1 X-coordinate {m}
    25.250000000000,         !- Vertex 1 Y-coordinate {m}
    0.000000000000,          !- Vertex 1 Z-coordinate {m}
    -5.000000000000,         !- Vertex 2 X-coordinate {m}
    11.750000000000,         !- Vertex 2 Y-coordinate {m}
    0.000000000000,          !- Vertex 2 Z-coordinate {m}
    -22.150000000000,        !- Vertex 3 X-coordinate {m}
    11.750000000000,         !- Vertex 3 Y-coordinate {m}
    0.000000000000,          !- Vertex 3 Z-coordinate {m}
    -22.150000000000,        !- Vertex 4 X-coordinate {m}
    25.250000000000,         !- Vertex 4 Y-coordinate {m}
    0.000000000000;          !- Vertex 4 Z-coordinate {m}

Shading:Building:Detailed,
    48C294,                  !- Name
    ,                        !- Transmittance Schedule Name
    4,                       !- Number of Vertices
    -22.150000000000,        !- Vertex 1 X-coordinate {m}
    25.250000000000,         !- Vertex 1 Y-coordinate {m}
    15.450000000000,         !- Vertex 1 Z-coordinate {m}
    -22.150000000000,        !- Vertex 2 X-coordinate {m}
    25.250000000000,         !- Vertex 2 Y-coordinate {m}
    0.000000000000,          !- Vertex 2 Z-coordinate {m}
    -22.150000000000,        !- Vertex 3 X-coordinate {m}
    11.750000000000,         !- Vertex 3 Y-coordinate {m}
    0.000000000000,          !- Vertex 3 Z-coordinate {m}
    -22.150000000000,        !- Vertex 4 X-coordinate {m}
    11.750000000000,         !- Vertex 4 Y-coordinate {m}
    15.450000000000;         !- Vertex 4 Z-coordinate {m}

Shading:Building:Detailed,
    793DE1,                  !- Name
    ,                        !- Transmittance Schedule Name
    4,                       !- Number of Vertices
    17.150000000000,         !- Vertex 1 X-coordinate {m}
    25.250000000000,         !- Vertex 1 Y-coordinate {m}
    15.450000000000,         !- Vertex 1 Z-coordinate {m}
    17.150000000000,         !- Vertex 2 X-coordinate {m}
    25.250000000000,         !- Vertex 2 Y-coordinate {m}
    0.000000000000,          !- Vertex 2 Z-coordinate {m}
    0.000000000000,          !- Vertex 3 X-coordinate {m}
    25.250000000000,         !- Vertex 3 Y-coordinate {m}
    0.000000000000,          !- Vertex 3 Z-coordinate {m}
    0.000000000000,          !- Vertex 4 X-coordinate {m}
    25.250000000000,         !- Vertex 4 Y-coordinate {m}
    15.450000000000;         !- Vertex 4 Z-coordinate {m}

Shading:Building:Detailed,
    F3F878,                  !- Name
    ,                        !- Transmittance Schedule Name
    4,                       !- Number of Vertices
    17.150000000000,         !- Vertex 1 X-coordinate {m}
    11.750000000000,         !- Vertex 1 Y-coordinate {m}
    15.450000000000,         !- Vertex 1 Z-coordinate {m}
    17.150000000000,         !- Vertex 2 X-coordinate {m}
    11.750000000000,         !- Vertex 2 Y-coordinate {m}
    0.000000000000,          !- Vertex 2 Z-coordinate {m}
    17.150000000000,         !- Vertex 3 X-coordinate {m}
    25.250000000000,         !- Vertex 3 Y-coordinate {m}
    0.000000000000,          !- Vertex 3 Z-coordinate {m}
    17.150000000000,         !- Vertex 4 X-coordinate {m}
    25.250000000000,         !- Vertex 4 Y-coordinate {m}
    15.450000000000;         !- Vertex 4 Z-coordinate {m}

Shading:Building:Detailed,
    610134,                  !- Name
    ,                        !- Transmittance Schedule Name
    4,                       !- Number of Vertices
    0.000000000000,          !- Vertex 1 X-coordinate {m}
    11.750000000000,         !- Vertex 1 Y-coordinate {m}
    15.450000000000,         !- Vertex 1 Z-coordinate {m}
    0.000000000000,          !- Vertex 2 X-coordinate {m}
    11.750000000000,         !- Vertex 2 Y-coordinate {m}
    0.000000000000,          !- Vertex 2 Z-coordinate {m}
    17.150000000000,         !- Vertex 3 X-coordinate {m}
    11.750000000000,         !- Vertex 3 Y-coordinate {m}
    0.000000000000,          !- Vertex 3 Z-coordinate {m}
    17.150000000000,         !- Vertex 4 X-coordinate {m}
    11.750000000000,         !- Vertex 4 Y-coordinate {m}
    15.450000000000;         !- Vertex 4 Z-coordinate {m}

Shading:Building:Detailed,
    73A5DD,                  !- Name
    ,                        !- Transmittance Schedule Name
    4,                       !- Number of Vertices
    0.000000000000,          !- Vertex 1 X-coordinate {m}
    25.250000000000,         !- Vertex 1 Y-coordinate {m}
    15.450000000000,         !- Vertex 1 Z-coordinate {m}
    0.000000000000,          !- Vertex 2 X-coordinate {m}
    11.750000000000,         !- Vertex 2 Y-coordinate {m}
    15.450000000000,         !- Vertex 2 Z-coordinate {m}
    17.150000000000,         !- Vertex 3 X-coordinate {m}
    11.750000000000,         !- Vertex 3 Y-coordinate {m}
    15.450000000000,         !- Vertex 3 Z-coordinate {m}
    17.150000000000,         !- Vertex 4 X-coordinate {m}
    25.250000000000,         !- Vertex 4 Y-coordinate {m}
    15.450000000000;         !- Vertex 4 Z-coordinate {m}

Shading:Building:Detailed,
    92B968,                  !- Name
    ,                        !- Transmittance Schedule Name
    4,                       !- Number of Vertices
    17.150000000000,         !- Vertex 1 X-coordinate {m}
    25.250000000000,         !- Vertex 1 Y-coordinate {m}
    0.000000000000,          !- Vertex 1 Z-coordinate {m}
    17.150000000000,         !- Vertex 2 X-coordinate {m}
    11.750000000000,         !- Vertex 2 Y-coordinate {m}
    0.000000000000,          !- Vertex 2 Z-coordinate {m}
    0.000000000000,          !- Vertex 3 X-coordinate {m}
    11.750000000000,         !- Vertex 3 Y-coordinate {m}
    0.000000000000,          !- Vertex 3 Z-coordinate {m}
    0.000000000000,          !- Vertex 4 X-coordinate {m}
    25.250000000000,         !- Vertex 4 Y-coordinate {m}
    0.000000000000;          !- Vertex 4 Z-coordinate {m}

Shading:Building:Detailed,
    CDB2DF,                  !- Name
    ,                        !- Transmittance Schedule Name
    4,                       !- Number of Vertices
    0.000000000000,          !- Vertex 1 X-coordinate {m}
    25.250000000000,         !- Vertex 1 Y-coordinate {m}
    15.450000000000,         !- Vertex 1 Z-coordinate {m}
    0.000000000000,          !- Vertex 2 X-coordinate {m}
    25.250000000000,         !- Vertex 2 Y-coordinate {m}
    0.000000000000,          !- Vertex 2 Z-coordinate {m}
    0.000000000000,          !- Vertex 3 X-coordinate {m}
    11.750000000000,         !- Vertex 3 Y-coordinate {m}
    0.000000000000,          !- Vertex 3 Z-coordinate {m}
    0.000000000000,          !- Vertex 4 X-coordinate {m}
    11.750000000000,         !- Vertex 4 Y-coordinate {m}
    15.450000000000;         !- Vertex 4 Z-coordinate {m}


!-   ===========  ALL OBJECTS IN CLASS: PEOPLE ===========

People,
    Ocupation,               !- Name
    TodosAps,                !- Zone or ZoneList Name
    TLB Occupation Schedule, !- Number of People Schedule Name
    People,                  !- Number of People Calculation Method
    4,                       !- Number of People
    ,                        !- People per Zone Floor Area {person/m2}
    ,                        !- Zone Floor Area per Person {m2/person}
    0.3,                     !- Fraction Radiant
    autocalculate,           !- Sensible Heat Fraction
    TBL Activities,          !- Activity Level Schedule Name
    3.82e-08,                !- Carbon Dioxide Generation Rate {m3/s-W}
    No,                      !- Enable ASHRAE 55 Comfort Warnings
    ZoneAveraged,            !- Mean Radiant Temperature Calculation Type
    ,                        !- Surface Name/Angle Factor List Name
    ,                        !- Work Efficiency Schedule Name
    DynamicClothingModelASHRAE55,  !- Clothing Insulation Calculation Method
    ,                        !- Clothing Insulation Calculation Method Schedule Name
    ,                        !- Clothing Insulation Schedule Name
    ,                        !- Air Velocity Schedule Name
    AdaptiveASH55;           !- Thermal Comfort Model 1 Type


!-   ===========  ALL OBJECTS IN CLASS: LIGHTS ===========

Lights,
    Ilumination,             !- Name
    TodosAps,                !- Zone or ZoneList Name
    TLB Ilumination Schedule,!- Schedule Name
    Watts/Area,              !- Design Level Calculation Method
    ,                        !- Lighting Level {W}
    5,                       !- Watts per Zone Floor Area {W/m2}
    ,                        !- Watts per Person {W/person}
    0,                       !- Return Air Fraction
    0.32,                    !- Fraction Radiant
    0.23,                    !- Fraction Visible
    0,                       !- Fraction Replaceable
    General,                 !- End-Use Subcategory
    No;                      !- Return Air Fraction Calculated from Plenum Temperature


!-   ===========  ALL OBJECTS IN CLASS: ELECTRICEQUIPMENT ===========

ElectricEquipment,
    Equipments,              !- Name
    TodosAps,                !- Zone or ZoneList Name
    TLB INI-R Equipments,    !- Schedule Name
    EquipmentLevel,          !- Design Level Calculation Method
    120,                     !- Design Level {W}
    0,                       !- Watts per Zone Floor Area {W/m2}
    ,                        !- Watts per Person {W/person}
    0,                       !- Fraction Latent
    0.3,                     !- Fraction Radiant
    0,                       !- Fraction Lost
    General;                 !- End-Use Subcategory


!-   ===========  ALL OBJECTS IN CLASS: AIRFLOWNETWORK:SIMULATIONCONTROL ===========

AirflowNetwork:SimulationControl,
    INI-R,                   !- Name
    MultizoneWithoutDistribution,  !- AirflowNetwork Control
    SurfaceAverageCalculation,  !- Wind Pressure Coefficient Type
    OpeningHeight,           !- Height Selection for Local Wind Pressure Calculation
    LowRise,                 !- Building Type
    500,                     !- Maximum Number of Iterations {dimensionless}
    LinearInitializationMethod,  !- Initialization Type
    0.0001,                  !- Relative Airflow Convergence Tolerance {dimensionless}
    0.000001,                !- Absolute Airflow Convergence Tolerance {kg/s}
    -.5,                     !- Convergence Acceleration Limit {dimensionless}
    0,                       !- Azimuth Angle of Long Axis of Building {deg}
    0.78;                    !- Ratio of Building Width Along Short Axis to Width Along Long Axis


!-   ===========  ALL OBJECTS IN CLASS: AIRFLOWNETWORK:MULTIZONE:ZONE ===========

AirflowNetwork:MultiZone:Zone,
    APTO01_P1,               !- Zone Name
    Temperature,             !- Ventilation Control Mode
    VN_19,                   !- Ventilation Control Zone Temperature Setpoint Schedule Name
    0.45,                    !- Minimum Venting Open Factor {dimensionless}
    0,                       !- Indoor and Outdoor Temperature Difference Lower Limit For Maximum Venting Open Factor {deltaC}
    5,                       !- Indoor and Outdoor Temperature Difference Upper Limit for Minimum Venting Open Factor {deltaC}
    0,                       !- Indoor and Outdoor Enthalpy Difference Lower Limit For Maximum Venting Open Factor {deltaJ/kg}
    300000,                  !- Indoor and Outdoor Enthalpy Difference Upper Limit for Minimum Venting Open Factor {deltaJ/kg}
    TLB Occupation Schedule, !- Venting Availability Schedule Name
    Standard,                !- Single Sided Wind Pressure Coefficient Algorithm
    17.15;                   !- Facade Width {m}

AirflowNetwork:MultiZone:Zone,
    APTO02_P1,               !- Zone Name
    Temperature,             !- Ventilation Control Mode
    VN_19,                   !- Ventilation Control Zone Temperature Setpoint Schedule Name
    0.45,                    !- Minimum Venting Open Factor {dimensionless}
    0,                       !- Indoor and Outdoor Temperature Difference Lower Limit For Maximum Venting Open Factor {deltaC}
    5,                       !- Indoor and Outdoor Temperature Difference Upper Limit for Minimum Venting Open Factor {deltaC}
    0,                       !- Indoor and Outdoor Enthalpy Difference Lower Limit For Maximum Venting Open Factor {deltaJ/kg}
    300000,                  !- Indoor and Outdoor Enthalpy Difference Upper Limit for Minimum Venting Open Factor {deltaJ/kg}
    TLB Occupation Schedule, !- Venting Availability Schedule Name
    Standard,                !- Single Sided Wind Pressure Coefficient Algorithm
    17.15;                   !- Facade Width {m}

AirflowNetwork:MultiZone:Zone,
    APTO03_P1,               !- Zone Name
    Temperature,             !- Ventilation Control Mode
    VN_19,                   !- Ventilation Control Zone Temperature Setpoint Schedule Name
    0.45,                    !- Minimum Venting Open Factor {dimensionless}
    0,                       !- Indoor and Outdoor Temperature Difference Lower Limit For Maximum Venting Open Factor {deltaC}
    5,                       !- Indoor and Outdoor Temperature Difference Upper Limit for Minimum Venting Open Factor {deltaC}
    0,                       !- Indoor and Outdoor Enthalpy Difference Lower Limit For Maximum Venting Open Factor {deltaJ/kg}
    300000,                  !- Indoor and Outdoor Enthalpy Difference Upper Limit for Minimum Venting Open Factor {deltaJ/kg}
    TLB Occupation Schedule, !- Venting Availability Schedule Name
    Standard,                !- Single Sided Wind Pressure Coefficient Algorithm
    17.15;                   !- Facade Width {m}

AirflowNetwork:MultiZone:Zone,
    APTO04_P1,               !- Zone Name
    Temperature,             !- Ventilation Control Mode
    VN_19,                   !- Ventilation Control Zone Temperature Setpoint Schedule Name
    0.45,                    !- Minimum Venting Open Factor {dimensionless}
    0,                       !- Indoor and Outdoor Temperature Difference Lower Limit For Maximum Venting Open Factor {deltaC}
    5,                       !- Indoor and Outdoor Temperature Difference Upper Limit for Minimum Venting Open Factor {deltaC}
    0,                       !- Indoor and Outdoor Enthalpy Difference Lower Limit For Maximum Venting Open Factor {deltaJ/kg}
    300000,                  !- Indoor and Outdoor Enthalpy Difference Upper Limit for Minimum Venting Open Factor {deltaJ/kg}
    TLB Occupation Schedule, !- Venting Availability Schedule Name
    Standard,                !- Single Sided Wind Pressure Coefficient Algorithm
    17.15;                   !- Facade Width {m}

AirflowNetwork:MultiZone:Zone,
    APTO01_P2,               !- Zone Name
    Temperature,             !- Ventilation Control Mode
    VN_19,                   !- Ventilation Control Zone Temperature Setpoint Schedule Name
    0.45,                    !- Minimum Venting Open Factor {dimensionless}
    0,                       !- Indoor and Outdoor Temperature Difference Lower Limit For Maximum Venting Open Factor {deltaC}
    5,                       !- Indoor and Outdoor Temperature Difference Upper Limit for Minimum Venting Open Factor {deltaC}
    0,                       !- Indoor and Outdoor Enthalpy Difference Lower Limit For Maximum Venting Open Factor {deltaJ/kg}
    300000,                  !- Indoor and Outdoor Enthalpy Difference Upper Limit for Minimum Venting Open Factor {deltaJ/kg}
    TLB Occupation Schedule, !- Venting Availability Schedule Name
    Standard,                !- Single Sided Wind Pressure Coefficient Algorithm
    17.15;                   !- Facade Width {m}

AirflowNetwork:MultiZone:Zone,
    APTO02_P2,               !- Zone Name
    Temperature,             !- Ventilation Control Mode
    VN_19,                   !- Ventilation Control Zone Temperature Setpoint Schedule Name
    0.45,                    !- Minimum Venting Open Factor {dimensionless}
    0,                       !- Indoor and Outdoor Temperature Difference Lower Limit For Maximum Venting Open Factor {deltaC}
    5,                       !- Indoor and Outdoor Temperature Difference Upper Limit for Minimum Venting Open Factor {deltaC}
    0,                       !- Indoor and Outdoor Enthalpy Difference Lower Limit For Maximum Venting Open Factor {deltaJ/kg}
    300000,                  !- Indoor and Outdoor Enthalpy Difference Upper Limit for Minimum Venting Open Factor {deltaJ/kg}
    TLB Occupation Schedule, !- Venting Availability Schedule Name
    Standard,                !- Single Sided Wind Pressure Coefficient Algorithm
    17.15;                   !- Facade Width {m}

AirflowNetwork:MultiZone:Zone,
    APTO03_P2,               !- Zone Name
    Temperature,             !- Ventilation Control Mode
    VN_19,                   !- Ventilation Control Zone Temperature Setpoint Schedule Name
    0.45,                    !- Minimum Venting Open Factor {dimensionless}
    0,                       !- Indoor and Outdoor Temperature Difference Lower Limit For Maximum Venting Open Factor {deltaC}
    5,                       !- Indoor and Outdoor Temperature Difference Upper Limit for Minimum Venting Open Factor {deltaC}
    0,                       !- Indoor and Outdoor Enthalpy Difference Lower Limit For Maximum Venting Open Factor {deltaJ/kg}
    300000,                  !- Indoor and Outdoor Enthalpy Difference Upper Limit for Minimum Venting Open Factor {deltaJ/kg}
    TLB Occupation Schedule, !- Venting Availability Schedule Name
    Standard,                !- Single Sided Wind Pressure Coefficient Algorithm
    17.15;                   !- Facade Width {m}

AirflowNetwork:MultiZone:Zone,
    APTO04_P2,               !- Zone Name
    Temperature,             !- Ventilation Control Mode
    VN_19,                   !- Ventilation Control Zone Temperature Setpoint Schedule Name
    0.45,                    !- Minimum Venting Open Factor {dimensionless}
    0,                       !- Indoor and Outdoor Temperature Difference Lower Limit For Maximum Venting Open Factor {deltaC}
    5,                       !- Indoor and Outdoor Temperature Difference Upper Limit for Minimum Venting Open Factor {deltaC}
    0,                       !- Indoor and Outdoor Enthalpy Difference Lower Limit For Maximum Venting Open Factor {deltaJ/kg}
    300000,                  !- Indoor and Outdoor Enthalpy Difference Upper Limit for Minimum Venting Open Factor {deltaJ/kg}
    TLB Occupation Schedule, !- Venting Availability Schedule Name
    Standard,                !- Single Sided Wind Pressure Coefficient Algorithm
    17.15;                   !- Facade Width {m}

AirflowNetwork:MultiZone:Zone,
    APTO01_P3,               !- Zone Name
    Temperature,             !- Ventilation Control Mode
    VN_19,                   !- Ventilation Control Zone Temperature Setpoint Schedule Name
    0.45,                    !- Minimum Venting Open Factor {dimensionless}
    0,                       !- Indoor and Outdoor Temperature Difference Lower Limit For Maximum Venting Open Factor {deltaC}
    5,                       !- Indoor and Outdoor Temperature Difference Upper Limit for Minimum Venting Open Factor {deltaC}
    0,                       !- Indoor and Outdoor Enthalpy Difference Lower Limit For Maximum Venting Open Factor {deltaJ/kg}
    300000,                  !- Indoor and Outdoor Enthalpy Difference Upper Limit for Minimum Venting Open Factor {deltaJ/kg}
    TLB Occupation Schedule, !- Venting Availability Schedule Name
    Standard,                !- Single Sided Wind Pressure Coefficient Algorithm
    17.15;                   !- Facade Width {m}

AirflowNetwork:MultiZone:Zone,
    APTO02_P3,               !- Zone Name
    Temperature,             !- Ventilation Control Mode
    VN_19,                   !- Ventilation Control Zone Temperature Setpoint Schedule Name
    0.45,                    !- Minimum Venting Open Factor {dimensionless}
    0,                       !- Indoor and Outdoor Temperature Difference Lower Limit For Maximum Venting Open Factor {deltaC}
    5,                       !- Indoor and Outdoor Temperature Difference Upper Limit for Minimum Venting Open Factor {deltaC}
    0,                       !- Indoor and Outdoor Enthalpy Difference Lower Limit For Maximum Venting Open Factor {deltaJ/kg}
    300000,                  !- Indoor and Outdoor Enthalpy Difference Upper Limit for Minimum Venting Open Factor {deltaJ/kg}
    TLB Occupation Schedule, !- Venting Availability Schedule Name
    Standard,                !- Single Sided Wind Pressure Coefficient Algorithm
    17.15;                   !- Facade Width {m}

AirflowNetwork:MultiZone:Zone,
    APTO03_P3,               !- Zone Name
    Temperature,             !- Ventilation Control Mode
    VN_19,                   !- Ventilation Control Zone Temperature Setpoint Schedule Name
    0.45,                    !- Minimum Venting Open Factor {dimensionless}
    0,                       !- Indoor and Outdoor Temperature Difference Lower Limit For Maximum Venting Open Factor {deltaC}
    5,                       !- Indoor and Outdoor Temperature Difference Upper Limit for Minimum Venting Open Factor {deltaC}
    0,                       !- Indoor and Outdoor Enthalpy Difference Lower Limit For Maximum Venting Open Factor {deltaJ/kg}
    300000,                  !- Indoor and Outdoor Enthalpy Difference Upper Limit for Minimum Venting Open Factor {deltaJ/kg}
    TLB Occupation Schedule, !- Venting Availability Schedule Name
    Standard,                !- Single Sided Wind Pressure Coefficient Algorithm
    17.15;                   !- Facade Width {m}

AirflowNetwork:MultiZone:Zone,
    APTO04_P3,               !- Zone Name
    Temperature,             !- Ventilation Control Mode
    VN_19,                   !- Ventilation Control Zone Temperature Setpoint Schedule Name
    0.45,                    !- Minimum Venting Open Factor {dimensionless}
    0,                       !- Indoor and Outdoor Temperature Difference Lower Limit For Maximum Venting Open Factor {deltaC}
    5,                       !- Indoor and Outdoor Temperature Difference Upper Limit for Minimum Venting Open Factor {deltaC}
    0,                       !- Indoor and Outdoor Enthalpy Difference Lower Limit For Maximum Venting Open Factor {deltaJ/kg}
    300000,                  !- Indoor and Outdoor Enthalpy Difference Upper Limit for Minimum Venting Open Factor {deltaJ/kg}
    TLB Occupation Schedule, !- Venting Availability Schedule Name
    Standard,                !- Single Sided Wind Pressure Coefficient Algorithm
    17.15;                   !- Facade Width {m}

AirflowNetwork:MultiZone:Zone,
    APTO01_P4,               !- Zone Name
    Temperature,             !- Ventilation Control Mode
    VN_19,                   !- Ventilation Control Zone Temperature Setpoint Schedule Name
    0.45,                    !- Minimum Venting Open Factor {dimensionless}
    0,                       !- Indoor and Outdoor Temperature Difference Lower Limit For Maximum Venting Open Factor {deltaC}
    5,                       !- Indoor and Outdoor Temperature Difference Upper Limit for Minimum Venting Open Factor {deltaC}
    0,                       !- Indoor and Outdoor Enthalpy Difference Lower Limit For Maximum Venting Open Factor {deltaJ/kg}
    300000,                  !- Indoor and Outdoor Enthalpy Difference Upper Limit for Minimum Venting Open Factor {deltaJ/kg}
    TLB Occupation Schedule, !- Venting Availability Schedule Name
    Standard,                !- Single Sided Wind Pressure Coefficient Algorithm
    17.15;                   !- Facade Width {m}

AirflowNetwork:MultiZone:Zone,
    APTO02_P4,               !- Zone Name
    Temperature,             !- Ventilation Control Mode
    VN_19,                   !- Ventilation Control Zone Temperature Setpoint Schedule Name
    0.45,                    !- Minimum Venting Open Factor {dimensionless}
    0,                       !- Indoor and Outdoor Temperature Difference Lower Limit For Maximum Venting Open Factor {deltaC}
    5,                       !- Indoor and Outdoor Temperature Difference Upper Limit for Minimum Venting Open Factor {deltaC}
    0,                       !- Indoor and Outdoor Enthalpy Difference Lower Limit For Maximum Venting Open Factor {deltaJ/kg}
    300000,                  !- Indoor and Outdoor Enthalpy Difference Upper Limit for Minimum Venting Open Factor {deltaJ/kg}
    TLB Occupation Schedule, !- Venting Availability Schedule Name
    Standard,                !- Single Sided Wind Pressure Coefficient Algorithm
    17.15;                   !- Facade Width {m}

AirflowNetwork:MultiZone:Zone,
    APTO03_P4,               !- Zone Name
    Temperature,             !- Ventilation Control Mode
    VN_19,                   !- Ventilation Control Zone Temperature Setpoint Schedule Name
    0.45,                    !- Minimum Venting Open Factor {dimensionless}
    0,                       !- Indoor and Outdoor Temperature Difference Lower Limit For Maximum Venting Open Factor {deltaC}
    5,                       !- Indoor and Outdoor Temperature Difference Upper Limit for Minimum Venting Open Factor {deltaC}
    0,                       !- Indoor and Outdoor Enthalpy Difference Lower Limit For Maximum Venting Open Factor {deltaJ/kg}
    300000,                  !- Indoor and Outdoor Enthalpy Difference Upper Limit for Minimum Venting Open Factor {deltaJ/kg}
    TLB Occupation Schedule, !- Venting Availability Schedule Name
    Standard,                !- Single Sided Wind Pressure Coefficient Algorithm
    17.15;                   !- Facade Width {m}

AirflowNetwork:MultiZone:Zone,
    APTO04_P4,               !- Zone Name
    Temperature,             !- Ventilation Control Mode
    VN_19,                   !- Ventilation Control Zone Temperature Setpoint Schedule Name
    0.45,                    !- Minimum Venting Open Factor {dimensionless}
    0,                       !- Indoor and Outdoor Temperature Difference Lower Limit For Maximum Venting Open Factor {deltaC}
    5,                       !- Indoor and Outdoor Temperature Difference Upper Limit for Minimum Venting Open Factor {deltaC}
    0,                       !- Indoor and Outdoor Enthalpy Difference Lower Limit For Maximum Venting Open Factor {deltaJ/kg}
    300000,                  !- Indoor and Outdoor Enthalpy Difference Upper Limit for Minimum Venting Open Factor {deltaJ/kg}
    TLB Occupation Schedule, !- Venting Availability Schedule Name
    Standard,                !- Single Sided Wind Pressure Coefficient Algorithm
    17.15;                   !- Facade Width {m}

AirflowNetwork:MultiZone:Zone,
    APTO01_P5,               !- Zone Name
    Temperature,             !- Ventilation Control Mode
    VN_19,                   !- Ventilation Control Zone Temperature Setpoint Schedule Name
    0.45,                    !- Minimum Venting Open Factor {dimensionless}
    0,                       !- Indoor and Outdoor Temperature Difference Lower Limit For Maximum Venting Open Factor {deltaC}
    5,                       !- Indoor and Outdoor Temperature Difference Upper Limit for Minimum Venting Open Factor {deltaC}
    0,                       !- Indoor and Outdoor Enthalpy Difference Lower Limit For Maximum Venting Open Factor {deltaJ/kg}
    300000,                  !- Indoor and Outdoor Enthalpy Difference Upper Limit for Minimum Venting Open Factor {deltaJ/kg}
    TLB Occupation Schedule, !- Venting Availability Schedule Name
    Standard,                !- Single Sided Wind Pressure Coefficient Algorithm
    17.15;                   !- Facade Width {m}

AirflowNetwork:MultiZone:Zone,
    APTO02_P5,               !- Zone Name
    Temperature,             !- Ventilation Control Mode
    VN_19,                   !- Ventilation Control Zone Temperature Setpoint Schedule Name
    0.45,                    !- Minimum Venting Open Factor {dimensionless}
    0,                       !- Indoor and Outdoor Temperature Difference Lower Limit For Maximum Venting Open Factor {deltaC}
    5,                       !- Indoor and Outdoor Temperature Difference Upper Limit for Minimum Venting Open Factor {deltaC}
    0,                       !- Indoor and Outdoor Enthalpy Difference Lower Limit For Maximum Venting Open Factor {deltaJ/kg}
    300000,                  !- Indoor and Outdoor Enthalpy Difference Upper Limit for Minimum Venting Open Factor {deltaJ/kg}
    TLB Occupation Schedule, !- Venting Availability Schedule Name
    Standard,                !- Single Sided Wind Pressure Coefficient Algorithm
    17.15;                   !- Facade Width {m}

AirflowNetwork:MultiZone:Zone,
    APTO03_P5,               !- Zone Name
    Temperature,             !- Ventilation Control Mode
    VN_19,                   !- Ventilation Control Zone Temperature Setpoint Schedule Name
    0.45,                    !- Minimum Venting Open Factor {dimensionless}
    0,                       !- Indoor and Outdoor Temperature Difference Lower Limit For Maximum Venting Open Factor {deltaC}
    5,                       !- Indoor and Outdoor Temperature Difference Upper Limit for Minimum Venting Open Factor {deltaC}
    0,                       !- Indoor and Outdoor Enthalpy Difference Lower Limit For Maximum Venting Open Factor {deltaJ/kg}
    300000,                  !- Indoor and Outdoor Enthalpy Difference Upper Limit for Minimum Venting Open Factor {deltaJ/kg}
    TLB Occupation Schedule, !- Venting Availability Schedule Name
    Standard,                !- Single Sided Wind Pressure Coefficient Algorithm
    17.15;                   !- Facade Width {m}

AirflowNetwork:MultiZone:Zone,
    APTO04_P5,               !- Zone Name
    Temperature,             !- Ventilation Control Mode
    VN_19,                   !- Ventilation Control Zone Temperature Setpoint Schedule Name
    0.45,                    !- Minimum Venting Open Factor {dimensionless}
    0,                       !- Indoor and Outdoor Temperature Difference Lower Limit For Maximum Venting Open Factor {deltaC}
    5,                       !- Indoor and Outdoor Temperature Difference Upper Limit for Minimum Venting Open Factor {deltaC}
    0,                       !- Indoor and Outdoor Enthalpy Difference Lower Limit For Maximum Venting Open Factor {deltaJ/kg}
    300000,                  !- Indoor and Outdoor Enthalpy Difference Upper Limit for Minimum Venting Open Factor {deltaJ/kg}
    TLB Occupation Schedule, !- Venting Availability Schedule Name
    Standard,                !- Single Sided Wind Pressure Coefficient Algorithm
    17.15;                   !- Facade Width {m}


!-   ===========  ALL OBJECTS IN CLASS: AIRFLOWNETWORK:MULTIZONE:SURFACE ===========

AirflowNetwork:MultiZone:Surface,
    P1_W01,                  !- Surface Name
    Windows,                 !- Leakage Component Name
    ,                        !- External Node Name
    0.45,                    !- Window/Door Opening Factor, or Crack Factor {dimensionless}
    ZoneLevel,               !- Ventilation Control Mode
    VN_19,                   !- Ventilation Control Zone Temperature Setpoint Schedule Name
    0.45,                    !- Minimum Venting Open Factor {dimensionless}
    0,                       !- Indoor and Outdoor Temperature Difference Lower Limit For Maximum Venting Open Factor {deltaC}
    5,                       !- Indoor and Outdoor Temperature Difference Upper Limit for Minimum Venting Open Factor {deltaC}
    0,                       !- Indoor and Outdoor Enthalpy Difference Lower Limit For Maximum Venting Open Factor {deltaJ/kg}
    300000,                  !- Indoor and Outdoor Enthalpy Difference Upper Limit for Minimum Venting Open Factor {deltaJ/kg}
    TLB Occupation Schedule, !- Venting Availability Schedule Name
    ,                        !- Occupant Ventilation Control Name
    PolygonHeight,           !- Equivalent Rectangle Method
    1;                       !- Equivalent Rectangle Aspect Ratio {dimensionless}

AirflowNetwork:MultiZone:Surface,
    P1_W02,                  !- Surface Name
    Windows,                 !- Leakage Component Name
    ,                        !- External Node Name
    0.45,                    !- Window/Door Opening Factor, or Crack Factor {dimensionless}
    ZoneLevel,               !- Ventilation Control Mode
    VN_19,                   !- Ventilation Control Zone Temperature Setpoint Schedule Name
    0.45,                    !- Minimum Venting Open Factor {dimensionless}
    0,                       !- Indoor and Outdoor Temperature Difference Lower Limit For Maximum Venting Open Factor {deltaC}
    5,                       !- Indoor and Outdoor Temperature Difference Upper Limit for Minimum Venting Open Factor {deltaC}
    0,                       !- Indoor and Outdoor Enthalpy Difference Lower Limit For Maximum Venting Open Factor {deltaJ/kg}
    300000,                  !- Indoor and Outdoor Enthalpy Difference Upper Limit for Minimum Venting Open Factor {deltaJ/kg}
    TLB Occupation Schedule, !- Venting Availability Schedule Name
    ,                        !- Occupant Ventilation Control Name
    PolygonHeight,           !- Equivalent Rectangle Method
    1;                       !- Equivalent Rectangle Aspect Ratio {dimensionless}

AirflowNetwork:MultiZone:Surface,
    P1_W03 (Door),           !- Surface Name
    Doors,                   !- Leakage Component Name
    ,                        !- External Node Name
    0.45,                    !- Window/Door Opening Factor, or Crack Factor {dimensionless}
    ZoneLevel,               !- Ventilation Control Mode
    VN_19,                   !- Ventilation Control Zone Temperature Setpoint Schedule Name
    0.45,                    !- Minimum Venting Open Factor {dimensionless}
    0,                       !- Indoor and Outdoor Temperature Difference Lower Limit For Maximum Venting Open Factor {deltaC}
    5,                       !- Indoor and Outdoor Temperature Difference Upper Limit for Minimum Venting Open Factor {deltaC}
    0,                       !- Indoor and Outdoor Enthalpy Difference Lower Limit For Maximum Venting Open Factor {deltaJ/kg}
    300000,                  !- Indoor and Outdoor Enthalpy Difference Upper Limit for Minimum Venting Open Factor {deltaJ/kg}
    TLB Occupation Schedule, !- Venting Availability Schedule Name
    ,                        !- Occupant Ventilation Control Name
    PolygonHeight,           !- Equivalent Rectangle Method
    1;                       !- Equivalent Rectangle Aspect Ratio {dimensionless}

AirflowNetwork:MultiZone:Surface,
    P1_W04 (WC),             !- Surface Name
    Windows,                 !- Leakage Component Name
    ,                        !- External Node Name
    0.45,                    !- Window/Door Opening Factor, or Crack Factor {dimensionless}
    ZoneLevel,               !- Ventilation Control Mode
    VN_19,                   !- Ventilation Control Zone Temperature Setpoint Schedule Name
    0.45,                    !- Minimum Venting Open Factor {dimensionless}
    0,                       !- Indoor and Outdoor Temperature Difference Lower Limit For Maximum Venting Open Factor {deltaC}
    5,                       !- Indoor and Outdoor Temperature Difference Upper Limit for Minimum Venting Open Factor {deltaC}
    0,                       !- Indoor and Outdoor Enthalpy Difference Lower Limit For Maximum Venting Open Factor {deltaJ/kg}
    300000,                  !- Indoor and Outdoor Enthalpy Difference Upper Limit for Minimum Venting Open Factor {deltaJ/kg}
    TLB Occupation Schedule, !- Venting Availability Schedule Name
    ,                        !- Occupant Ventilation Control Name
    PolygonHeight,           !- Equivalent Rectangle Method
    1;                       !- Equivalent Rectangle Aspect Ratio {dimensionless}

AirflowNetwork:MultiZone:Surface,
    P1_W05 (Kitchen),        !- Surface Name
    Windows,                 !- Leakage Component Name
    ,                        !- External Node Name
    0.45,                    !- Window/Door Opening Factor, or Crack Factor {dimensionless}
    ZoneLevel,               !- Ventilation Control Mode
    VN_19,                   !- Ventilation Control Zone Temperature Setpoint Schedule Name
    0.45,                    !- Minimum Venting Open Factor {dimensionless}
    0,                       !- Indoor and Outdoor Temperature Difference Lower Limit For Maximum Venting Open Factor {deltaC}
    5,                       !- Indoor and Outdoor Temperature Difference Upper Limit for Minimum Venting Open Factor {deltaC}
    0,                       !- Indoor and Outdoor Enthalpy Difference Lower Limit For Maximum Venting Open Factor {deltaJ/kg}
    300000,                  !- Indoor and Outdoor Enthalpy Difference Upper Limit for Minimum Venting Open Factor {deltaJ/kg}
    TLB Occupation Schedule, !- Venting Availability Schedule Name
    ,                        !- Occupant Ventilation Control Name
    PolygonHeight,           !- Equivalent Rectangle Method
    1;                       !- Equivalent Rectangle Aspect Ratio {dimensionless}

AirflowNetwork:MultiZone:Surface,
    P1_W06,                  !- Surface Name
    Windows,                 !- Leakage Component Name
    ,                        !- External Node Name
    0.45,                    !- Window/Door Opening Factor, or Crack Factor {dimensionless}
    ZoneLevel,               !- Ventilation Control Mode
    VN_19,                   !- Ventilation Control Zone Temperature Setpoint Schedule Name
    0.45,                    !- Minimum Venting Open Factor {dimensionless}
    0,                       !- Indoor and Outdoor Temperature Difference Lower Limit For Maximum Venting Open Factor {deltaC}
    5,                       !- Indoor and Outdoor Temperature Difference Upper Limit for Minimum Venting Open Factor {deltaC}
    0,                       !- Indoor and Outdoor Enthalpy Difference Lower Limit For Maximum Venting Open Factor {deltaJ/kg}
    300000,                  !- Indoor and Outdoor Enthalpy Difference Upper Limit for Minimum Venting Open Factor {deltaJ/kg}
    TLB Occupation Schedule, !- Venting Availability Schedule Name
    ,                        !- Occupant Ventilation Control Name
    PolygonHeight,           !- Equivalent Rectangle Method
    1;                       !- Equivalent Rectangle Aspect Ratio {dimensionless}

AirflowNetwork:MultiZone:Surface,
    P1_W07,                  !- Surface Name
    Doors,                   !- Leakage Component Name
    ,                        !- External Node Name
    0.45,                    !- Window/Door Opening Factor, or Crack Factor {dimensionless}
    ZoneLevel,               !- Ventilation Control Mode
    VN_19,                   !- Ventilation Control Zone Temperature Setpoint Schedule Name
    0.45,                    !- Minimum Venting Open Factor {dimensionless}
    0,                       !- Indoor and Outdoor Temperature Difference Lower Limit For Maximum Venting Open Factor {deltaC}
    5,                       !- Indoor and Outdoor Temperature Difference Upper Limit for Minimum Venting Open Factor {deltaC}
    0,                       !- Indoor and Outdoor Enthalpy Difference Lower Limit For Maximum Venting Open Factor {deltaJ/kg}
    300000,                  !- Indoor and Outdoor Enthalpy Difference Upper Limit for Minimum Venting Open Factor {deltaJ/kg}
    TLB Occupation Schedule, !- Venting Availability Schedule Name
    ,                        !- Occupant Ventilation Control Name
    PolygonHeight,           !- Equivalent Rectangle Method
    1;                       !- Equivalent Rectangle Aspect Ratio {dimensionless}

AirflowNetwork:MultiZone:Surface,
    P1_W08 (Door),           !- Surface Name
    Doors,                   !- Leakage Component Name
    ,                        !- External Node Name
    0.45,                    !- Window/Door Opening Factor, or Crack Factor {dimensionless}
    ZoneLevel,               !- Ventilation Control Mode
    VN_19,                   !- Ventilation Control Zone Temperature Setpoint Schedule Name
    0.45,                    !- Minimum Venting Open Factor {dimensionless}
    0,                       !- Indoor and Outdoor Temperature Difference Lower Limit For Maximum Venting Open Factor {deltaC}
    5,                       !- Indoor and Outdoor Temperature Difference Upper Limit for Minimum Venting Open Factor {deltaC}
    0,                       !- Indoor and Outdoor Enthalpy Difference Lower Limit For Maximum Venting Open Factor {deltaJ/kg}
    300000,                  !- Indoor and Outdoor Enthalpy Difference Upper Limit for Minimum Venting Open Factor {deltaJ/kg}
    TLB Occupation Schedule, !- Venting Availability Schedule Name
    ,                        !- Occupant Ventilation Control Name
    PolygonHeight,           !- Equivalent Rectangle Method
    1;                       !- Equivalent Rectangle Aspect Ratio {dimensionless}

AirflowNetwork:MultiZone:Surface,
    P1_W09 (WC),             !- Surface Name
    Windows,                 !- Leakage Component Name
    ,                        !- External Node Name
    0.45,                    !- Window/Door Opening Factor, or Crack Factor {dimensionless}
    ZoneLevel,               !- Ventilation Control Mode
    VN_19,                   !- Ventilation Control Zone Temperature Setpoint Schedule Name
    0.45,                    !- Minimum Venting Open Factor {dimensionless}
    0,                       !- Indoor and Outdoor Temperature Difference Lower Limit For Maximum Venting Open Factor {deltaC}
    5,                       !- Indoor and Outdoor Temperature Difference Upper Limit for Minimum Venting Open Factor {deltaC}
    0,                       !- Indoor and Outdoor Enthalpy Difference Lower Limit For Maximum Venting Open Factor {deltaJ/kg}
    300000,                  !- Indoor and Outdoor Enthalpy Difference Upper Limit for Minimum Venting Open Factor {deltaJ/kg}
    TLB Occupation Schedule, !- Venting Availability Schedule Name
    ,                        !- Occupant Ventilation Control Name
    PolygonHeight,           !- Equivalent Rectangle Method
    1;                       !- Equivalent Rectangle Aspect Ratio {dimensionless}

AirflowNetwork:MultiZone:Surface,
    P1_W10 (Kitchen),        !- Surface Name
    Windows,                 !- Leakage Component Name
    ,                        !- External Node Name
    0.45,                    !- Window/Door Opening Factor, or Crack Factor {dimensionless}
    ZoneLevel,               !- Ventilation Control Mode
    VN_19,                   !- Ventilation Control Zone Temperature Setpoint Schedule Name
    0.45,                    !- Minimum Venting Open Factor {dimensionless}
    0,                       !- Indoor and Outdoor Temperature Difference Lower Limit For Maximum Venting Open Factor {deltaC}
    5,                       !- Indoor and Outdoor Temperature Difference Upper Limit for Minimum Venting Open Factor {deltaC}
    0,                       !- Indoor and Outdoor Enthalpy Difference Lower Limit For Maximum Venting Open Factor {deltaJ/kg}
    300000,                  !- Indoor and Outdoor Enthalpy Difference Upper Limit for Minimum Venting Open Factor {deltaJ/kg}
    TLB Occupation Schedule, !- Venting Availability Schedule Name
    ,                        !- Occupant Ventilation Control Name
    PolygonHeight,           !- Equivalent Rectangle Method
    1;                       !- Equivalent Rectangle Aspect Ratio {dimensionless}

AirflowNetwork:MultiZone:Surface,
    P1_W11,                  !- Surface Name
    Windows,                 !- Leakage Component Name
    ,                        !- External Node Name
    0.45,                    !- Window/Door Opening Factor, or Crack Factor {dimensionless}
    ZoneLevel,               !- Ventilation Control Mode
    VN_19,                   !- Ventilation Control Zone Temperature Setpoint Schedule Name
    0.45,                    !- Minimum Venting Open Factor {dimensionless}
    0,                       !- Indoor and Outdoor Temperature Difference Lower Limit For Maximum Venting Open Factor {deltaC}
    5,                       !- Indoor and Outdoor Temperature Difference Upper Limit for Minimum Venting Open Factor {deltaC}
    0,                       !- Indoor and Outdoor Enthalpy Difference Lower Limit For Maximum Venting Open Factor {deltaJ/kg}
    300000,                  !- Indoor and Outdoor Enthalpy Difference Upper Limit for Minimum Venting Open Factor {deltaJ/kg}
    TLB Occupation Schedule, !- Venting Availability Schedule Name
    ,                        !- Occupant Ventilation Control Name
    PolygonHeight,           !- Equivalent Rectangle Method
    1;                       !- Equivalent Rectangle Aspect Ratio {dimensionless}

AirflowNetwork:MultiZone:Surface,
    P1_W12,                  !- Surface Name
    Windows,                 !- Leakage Component Name
    ,                        !- External Node Name
    0.45,                    !- Window/Door Opening Factor, or Crack Factor {dimensionless}
    ZoneLevel,               !- Ventilation Control Mode
    VN_19,                   !- Ventilation Control Zone Temperature Setpoint Schedule Name
    0.45,                    !- Minimum Venting Open Factor {dimensionless}
    0,                       !- Indoor and Outdoor Temperature Difference Lower Limit For Maximum Venting Open Factor {deltaC}
    5,                       !- Indoor and Outdoor Temperature Difference Upper Limit for Minimum Venting Open Factor {deltaC}
    0,                       !- Indoor and Outdoor Enthalpy Difference Lower Limit For Maximum Venting Open Factor {deltaJ/kg}
    300000,                  !- Indoor and Outdoor Enthalpy Difference Upper Limit for Minimum Venting Open Factor {deltaJ/kg}
    TLB Occupation Schedule, !- Venting Availability Schedule Name
    ,                        !- Occupant Ventilation Control Name
    PolygonHeight,           !- Equivalent Rectangle Method
    1;                       !- Equivalent Rectangle Aspect Ratio {dimensionless}

AirflowNetwork:MultiZone:Surface,
    P1_W13 (Door),           !- Surface Name
    Doors,                   !- Leakage Component Name
    ,                        !- External Node Name
    0.45,                    !- Window/Door Opening Factor, or Crack Factor {dimensionless}
    ZoneLevel,               !- Ventilation Control Mode
    VN_19,                   !- Ventilation Control Zone Temperature Setpoint Schedule Name
    0.45,                    !- Minimum Venting Open Factor {dimensionless}
    0,                       !- Indoor and Outdoor Temperature Difference Lower Limit For Maximum Venting Open Factor {deltaC}
    5,                       !- Indoor and Outdoor Temperature Difference Upper Limit for Minimum Venting Open Factor {deltaC}
    0,                       !- Indoor and Outdoor Enthalpy Difference Lower Limit For Maximum Venting Open Factor {deltaJ/kg}
    300000,                  !- Indoor and Outdoor Enthalpy Difference Upper Limit for Minimum Venting Open Factor {deltaJ/kg}
    TLB Occupation Schedule, !- Venting Availability Schedule Name
    ,                        !- Occupant Ventilation Control Name
    PolygonHeight,           !- Equivalent Rectangle Method
    1;                       !- Equivalent Rectangle Aspect Ratio {dimensionless}

AirflowNetwork:MultiZone:Surface,
    P1_W14 (WC),             !- Surface Name
    Windows,                 !- Leakage Component Name
    ,                        !- External Node Name
    0.45,                    !- Window/Door Opening Factor, or Crack Factor {dimensionless}
    ZoneLevel,               !- Ventilation Control Mode
    VN_19,                   !- Ventilation Control Zone Temperature Setpoint Schedule Name
    0.45,                    !- Minimum Venting Open Factor {dimensionless}
    0,                       !- Indoor and Outdoor Temperature Difference Lower Limit For Maximum Venting Open Factor {deltaC}
    5,                       !- Indoor and Outdoor Temperature Difference Upper Limit for Minimum Venting Open Factor {deltaC}
    0,                       !- Indoor and Outdoor Enthalpy Difference Lower Limit For Maximum Venting Open Factor {deltaJ/kg}
    300000,                  !- Indoor and Outdoor Enthalpy Difference Upper Limit for Minimum Venting Open Factor {deltaJ/kg}
    TLB Occupation Schedule, !- Venting Availability Schedule Name
    ,                        !- Occupant Ventilation Control Name
    PolygonHeight,           !- Equivalent Rectangle Method
    1;                       !- Equivalent Rectangle Aspect Ratio {dimensionless}

AirflowNetwork:MultiZone:Surface,
    P1_W15 (Kitchen),        !- Surface Name
    Windows,                 !- Leakage Component Name
    ,                        !- External Node Name
    0.45,                    !- Window/Door Opening Factor, or Crack Factor {dimensionless}
    ZoneLevel,               !- Ventilation Control Mode
    VN_19,                   !- Ventilation Control Zone Temperature Setpoint Schedule Name
    0.45,                    !- Minimum Venting Open Factor {dimensionless}
    0,                       !- Indoor and Outdoor Temperature Difference Lower Limit For Maximum Venting Open Factor {deltaC}
    5,                       !- Indoor and Outdoor Temperature Difference Upper Limit for Minimum Venting Open Factor {deltaC}
    0,                       !- Indoor and Outdoor Enthalpy Difference Lower Limit For Maximum Venting Open Factor {deltaJ/kg}
    300000,                  !- Indoor and Outdoor Enthalpy Difference Upper Limit for Minimum Venting Open Factor {deltaJ/kg}
    TLB Occupation Schedule, !- Venting Availability Schedule Name
    ,                        !- Occupant Ventilation Control Name
    PolygonHeight,           !- Equivalent Rectangle Method
    1;                       !- Equivalent Rectangle Aspect Ratio {dimensionless}

AirflowNetwork:MultiZone:Surface,
    P1_W16,                  !- Surface Name
    Windows,                 !- Leakage Component Name
    ,                        !- External Node Name
    0.45,                    !- Window/Door Opening Factor, or Crack Factor {dimensionless}
    ZoneLevel,               !- Ventilation Control Mode
    VN_19,                   !- Ventilation Control Zone Temperature Setpoint Schedule Name
    0.45,                    !- Minimum Venting Open Factor {dimensionless}
    0,                       !- Indoor and Outdoor Temperature Difference Lower Limit For Maximum Venting Open Factor {deltaC}
    5,                       !- Indoor and Outdoor Temperature Difference Upper Limit for Minimum Venting Open Factor {deltaC}
    0,                       !- Indoor and Outdoor Enthalpy Difference Lower Limit For Maximum Venting Open Factor {deltaJ/kg}
    300000,                  !- Indoor and Outdoor Enthalpy Difference Upper Limit for Minimum Venting Open Factor {deltaJ/kg}
    TLB Occupation Schedule, !- Venting Availability Schedule Name
    ,                        !- Occupant Ventilation Control Name
    PolygonHeight,           !- Equivalent Rectangle Method
    1;                       !- Equivalent Rectangle Aspect Ratio {dimensionless}

AirflowNetwork:MultiZone:Surface,
    P1_W17,                  !- Surface Name
    Windows,                 !- Leakage Component Name
    ,                        !- External Node Name
    0.45,                    !- Window/Door Opening Factor, or Crack Factor {dimensionless}
    ZoneLevel,               !- Ventilation Control Mode
    VN_19,                   !- Ventilation Control Zone Temperature Setpoint Schedule Name
    0.45,                    !- Minimum Venting Open Factor {dimensionless}
    0,                       !- Indoor and Outdoor Temperature Difference Lower Limit For Maximum Venting Open Factor {deltaC}
    5,                       !- Indoor and Outdoor Temperature Difference Upper Limit for Minimum Venting Open Factor {deltaC}
    0,                       !- Indoor and Outdoor Enthalpy Difference Lower Limit For Maximum Venting Open Factor {deltaJ/kg}
    300000,                  !- Indoor and Outdoor Enthalpy Difference Upper Limit for Minimum Venting Open Factor {deltaJ/kg}
    TLB Occupation Schedule, !- Venting Availability Schedule Name
    ,                        !- Occupant Ventilation Control Name
    PolygonHeight,           !- Equivalent Rectangle Method
    1;                       !- Equivalent Rectangle Aspect Ratio {dimensionless}

AirflowNetwork:MultiZone:Surface,
    P1_W18 (Door),           !- Surface Name
    Doors,                   !- Leakage Component Name
    ,                        !- External Node Name
    0.45,                    !- Window/Door Opening Factor, or Crack Factor {dimensionless}
    ZoneLevel,               !- Ventilation Control Mode
    VN_19,                   !- Ventilation Control Zone Temperature Setpoint Schedule Name
    0.45,                    !- Minimum Venting Open Factor {dimensionless}
    0,                       !- Indoor and Outdoor Temperature Difference Lower Limit For Maximum Venting Open Factor {deltaC}
    5,                       !- Indoor and Outdoor Temperature Difference Upper Limit for Minimum Venting Open Factor {deltaC}
    0,                       !- Indoor and Outdoor Enthalpy Difference Lower Limit For Maximum Venting Open Factor {deltaJ/kg}
    300000,                  !- Indoor and Outdoor Enthalpy Difference Upper Limit for Minimum Venting Open Factor {deltaJ/kg}
    TLB Occupation Schedule, !- Venting Availability Schedule Name
    ,                        !- Occupant Ventilation Control Name
    PolygonHeight,           !- Equivalent Rectangle Method
    1;                       !- Equivalent Rectangle Aspect Ratio {dimensionless}

AirflowNetwork:MultiZone:Surface,
    P1_W19 (WC),             !- Surface Name
    Windows,                 !- Leakage Component Name
    ,                        !- External Node Name
    0.45,                    !- Window/Door Opening Factor, or Crack Factor {dimensionless}
    ZoneLevel,               !- Ventilation Control Mode
    VN_19,                   !- Ventilation Control Zone Temperature Setpoint Schedule Name
    0.45,                    !- Minimum Venting Open Factor {dimensionless}
    0,                       !- Indoor and Outdoor Temperature Difference Lower Limit For Maximum Venting Open Factor {deltaC}
    5,                       !- Indoor and Outdoor Temperature Difference Upper Limit for Minimum Venting Open Factor {deltaC}
    0,                       !- Indoor and Outdoor Enthalpy Difference Lower Limit For Maximum Venting Open Factor {deltaJ/kg}
    300000,                  !- Indoor and Outdoor Enthalpy Difference Upper Limit for Minimum Venting Open Factor {deltaJ/kg}
    TLB Occupation Schedule, !- Venting Availability Schedule Name
    ,                        !- Occupant Ventilation Control Name
    PolygonHeight,           !- Equivalent Rectangle Method
    1;                       !- Equivalent Rectangle Aspect Ratio {dimensionless}

AirflowNetwork:MultiZone:Surface,
    P1_W20 (Kitchen),        !- Surface Name
    Windows,                 !- Leakage Component Name
    ,                        !- External Node Name
    0.45,                    !- Window/Door Opening Factor, or Crack Factor {dimensionless}
    ZoneLevel,               !- Ventilation Control Mode
    VN_19,                   !- Ventilation Control Zone Temperature Setpoint Schedule Name
    0.45,                    !- Minimum Venting Open Factor {dimensionless}
    0,                       !- Indoor and Outdoor Temperature Difference Lower Limit For Maximum Venting Open Factor {deltaC}
    5,                       !- Indoor and Outdoor Temperature Difference Upper Limit for Minimum Venting Open Factor {deltaC}
    0,                       !- Indoor and Outdoor Enthalpy Difference Lower Limit For Maximum Venting Open Factor {deltaJ/kg}
    300000,                  !- Indoor and Outdoor Enthalpy Difference Upper Limit for Minimum Venting Open Factor {deltaJ/kg}
    TLB Occupation Schedule, !- Venting Availability Schedule Name
    ,                        !- Occupant Ventilation Control Name
    PolygonHeight,           !- Equivalent Rectangle Method
    1;                       !- Equivalent Rectangle Aspect Ratio {dimensionless}

AirflowNetwork:MultiZone:Surface,
    P2_W01,                  !- Surface Name
    Windows,                 !- Leakage Component Name
    ,                        !- External Node Name
    0.45,                    !- Window/Door Opening Factor, or Crack Factor {dimensionless}
    ZoneLevel,               !- Ventilation Control Mode
    VN_19,                   !- Ventilation Control Zone Temperature Setpoint Schedule Name
    0.45,                    !- Minimum Venting Open Factor {dimensionless}
    0,                       !- Indoor and Outdoor Temperature Difference Lower Limit For Maximum Venting Open Factor {deltaC}
    5,                       !- Indoor and Outdoor Temperature Difference Upper Limit for Minimum Venting Open Factor {deltaC}
    0,                       !- Indoor and Outdoor Enthalpy Difference Lower Limit For Maximum Venting Open Factor {deltaJ/kg}
    300000,                  !- Indoor and Outdoor Enthalpy Difference Upper Limit for Minimum Venting Open Factor {deltaJ/kg}
    TLB Occupation Schedule, !- Venting Availability Schedule Name
    ,                        !- Occupant Ventilation Control Name
    PolygonHeight,           !- Equivalent Rectangle Method
    1;                       !- Equivalent Rectangle Aspect Ratio {dimensionless}

AirflowNetwork:MultiZone:Surface,
    P2_W02,                  !- Surface Name
    Windows,                 !- Leakage Component Name
    ,                        !- External Node Name
    0.45,                    !- Window/Door Opening Factor, or Crack Factor {dimensionless}
    ZoneLevel,               !- Ventilation Control Mode
    VN_19,                   !- Ventilation Control Zone Temperature Setpoint Schedule Name
    0.45,                    !- Minimum Venting Open Factor {dimensionless}
    0,                       !- Indoor and Outdoor Temperature Difference Lower Limit For Maximum Venting Open Factor {deltaC}
    5,                       !- Indoor and Outdoor Temperature Difference Upper Limit for Minimum Venting Open Factor {deltaC}
    0,                       !- Indoor and Outdoor Enthalpy Difference Lower Limit For Maximum Venting Open Factor {deltaJ/kg}
    300000,                  !- Indoor and Outdoor Enthalpy Difference Upper Limit for Minimum Venting Open Factor {deltaJ/kg}
    TLB Occupation Schedule, !- Venting Availability Schedule Name
    ,                        !- Occupant Ventilation Control Name
    PolygonHeight,           !- Equivalent Rectangle Method
    1;                       !- Equivalent Rectangle Aspect Ratio {dimensionless}

AirflowNetwork:MultiZone:Surface,
    P2_W03 (Door),           !- Surface Name
    Doors,                   !- Leakage Component Name
    ,                        !- External Node Name
    0.45,                    !- Window/Door Opening Factor, or Crack Factor {dimensionless}
    ZoneLevel,               !- Ventilation Control Mode
    VN_19,                   !- Ventilation Control Zone Temperature Setpoint Schedule Name
    0.45,                    !- Minimum Venting Open Factor {dimensionless}
    0,                       !- Indoor and Outdoor Temperature Difference Lower Limit For Maximum Venting Open Factor {deltaC}
    5,                       !- Indoor and Outdoor Temperature Difference Upper Limit for Minimum Venting Open Factor {deltaC}
    0,                       !- Indoor and Outdoor Enthalpy Difference Lower Limit For Maximum Venting Open Factor {deltaJ/kg}
    300000,                  !- Indoor and Outdoor Enthalpy Difference Upper Limit for Minimum Venting Open Factor {deltaJ/kg}
    TLB Occupation Schedule, !- Venting Availability Schedule Name
    ,                        !- Occupant Ventilation Control Name
    PolygonHeight,           !- Equivalent Rectangle Method
    1;                       !- Equivalent Rectangle Aspect Ratio {dimensionless}

AirflowNetwork:MultiZone:Surface,
    P2_W04 (WC),             !- Surface Name
    Windows,                 !- Leakage Component Name
    ,                        !- External Node Name
    0.45,                    !- Window/Door Opening Factor, or Crack Factor {dimensionless}
    ZoneLevel,               !- Ventilation Control Mode
    VN_19,                   !- Ventilation Control Zone Temperature Setpoint Schedule Name
    0.45,                    !- Minimum Venting Open Factor {dimensionless}
    0,                       !- Indoor and Outdoor Temperature Difference Lower Limit For Maximum Venting Open Factor {deltaC}
    5,                       !- Indoor and Outdoor Temperature Difference Upper Limit for Minimum Venting Open Factor {deltaC}
    0,                       !- Indoor and Outdoor Enthalpy Difference Lower Limit For Maximum Venting Open Factor {deltaJ/kg}
    300000,                  !- Indoor and Outdoor Enthalpy Difference Upper Limit for Minimum Venting Open Factor {deltaJ/kg}
    TLB Occupation Schedule, !- Venting Availability Schedule Name
    ,                        !- Occupant Ventilation Control Name
    PolygonHeight,           !- Equivalent Rectangle Method
    1;                       !- Equivalent Rectangle Aspect Ratio {dimensionless}

AirflowNetwork:MultiZone:Surface,
    P2_W05 (Kitchen),        !- Surface Name
    Windows,                 !- Leakage Component Name
    ,                        !- External Node Name
    0.45,                    !- Window/Door Opening Factor, or Crack Factor {dimensionless}
    ZoneLevel,               !- Ventilation Control Mode
    VN_19,                   !- Ventilation Control Zone Temperature Setpoint Schedule Name
    0.45,                    !- Minimum Venting Open Factor {dimensionless}
    0,                       !- Indoor and Outdoor Temperature Difference Lower Limit For Maximum Venting Open Factor {deltaC}
    5,                       !- Indoor and Outdoor Temperature Difference Upper Limit for Minimum Venting Open Factor {deltaC}
    0,                       !- Indoor and Outdoor Enthalpy Difference Lower Limit For Maximum Venting Open Factor {deltaJ/kg}
    300000,                  !- Indoor and Outdoor Enthalpy Difference Upper Limit for Minimum Venting Open Factor {deltaJ/kg}
    TLB Occupation Schedule, !- Venting Availability Schedule Name
    ,                        !- Occupant Ventilation Control Name
    PolygonHeight,           !- Equivalent Rectangle Method
    1;                       !- Equivalent Rectangle Aspect Ratio {dimensionless}

AirflowNetwork:MultiZone:Surface,
    P2_W06,                  !- Surface Name
    Windows,                 !- Leakage Component Name
    ,                        !- External Node Name
    0.45,                    !- Window/Door Opening Factor, or Crack Factor {dimensionless}
    ZoneLevel,               !- Ventilation Control Mode
    VN_19,                   !- Ventilation Control Zone Temperature Setpoint Schedule Name
    0.45,                    !- Minimum Venting Open Factor {dimensionless}
    0,                       !- Indoor and Outdoor Temperature Difference Lower Limit For Maximum Venting Open Factor {deltaC}
    5,                       !- Indoor and Outdoor Temperature Difference Upper Limit for Minimum Venting Open Factor {deltaC}
    0,                       !- Indoor and Outdoor Enthalpy Difference Lower Limit For Maximum Venting Open Factor {deltaJ/kg}
    300000,                  !- Indoor and Outdoor Enthalpy Difference Upper Limit for Minimum Venting Open Factor {deltaJ/kg}
    TLB Occupation Schedule, !- Venting Availability Schedule Name
    ,                        !- Occupant Ventilation Control Name
    PolygonHeight,           !- Equivalent Rectangle Method
    1;                       !- Equivalent Rectangle Aspect Ratio {dimensionless}

AirflowNetwork:MultiZone:Surface,
    P2_W07,                  !- Surface Name
    Windows,                 !- Leakage Component Name
    ,                        !- External Node Name
    0.45,                    !- Window/Door Opening Factor, or Crack Factor {dimensionless}
    ZoneLevel,               !- Ventilation Control Mode
    VN_19,                   !- Ventilation Control Zone Temperature Setpoint Schedule Name
    0.45,                    !- Minimum Venting Open Factor {dimensionless}
    0,                       !- Indoor and Outdoor Temperature Difference Lower Limit For Maximum Venting Open Factor {deltaC}
    5,                       !- Indoor and Outdoor Temperature Difference Upper Limit for Minimum Venting Open Factor {deltaC}
    0,                       !- Indoor and Outdoor Enthalpy Difference Lower Limit For Maximum Venting Open Factor {deltaJ/kg}
    300000,                  !- Indoor and Outdoor Enthalpy Difference Upper Limit for Minimum Venting Open Factor {deltaJ/kg}
    TLB Occupation Schedule, !- Venting Availability Schedule Name
    ,                        !- Occupant Ventilation Control Name
    PolygonHeight,           !- Equivalent Rectangle Method
    1;                       !- Equivalent Rectangle Aspect Ratio {dimensionless}

AirflowNetwork:MultiZone:Surface,
    P2_W08 (Door),           !- Surface Name
    Doors,                   !- Leakage Component Name
    ,                        !- External Node Name
    0.45,                    !- Window/Door Opening Factor, or Crack Factor {dimensionless}
    ZoneLevel,               !- Ventilation Control Mode
    VN_19,                   !- Ventilation Control Zone Temperature Setpoint Schedule Name
    0.45,                    !- Minimum Venting Open Factor {dimensionless}
    0,                       !- Indoor and Outdoor Temperature Difference Lower Limit For Maximum Venting Open Factor {deltaC}
    5,                       !- Indoor and Outdoor Temperature Difference Upper Limit for Minimum Venting Open Factor {deltaC}
    0,                       !- Indoor and Outdoor Enthalpy Difference Lower Limit For Maximum Venting Open Factor {deltaJ/kg}
    300000,                  !- Indoor and Outdoor Enthalpy Difference Upper Limit for Minimum Venting Open Factor {deltaJ/kg}
    TLB Occupation Schedule, !- Venting Availability Schedule Name
    ,                        !- Occupant Ventilation Control Name
    PolygonHeight,           !- Equivalent Rectangle Method
    1;                       !- Equivalent Rectangle Aspect Ratio {dimensionless}

AirflowNetwork:MultiZone:Surface,
    P2_W09 (WC),             !- Surface Name
    Windows,                 !- Leakage Component Name
    ,                        !- External Node Name
    0.45,                    !- Window/Door Opening Factor, or Crack Factor {dimensionless}
    ZoneLevel,               !- Ventilation Control Mode
    VN_19,                   !- Ventilation Control Zone Temperature Setpoint Schedule Name
    0.45,                    !- Minimum Venting Open Factor {dimensionless}
    0,                       !- Indoor and Outdoor Temperature Difference Lower Limit For Maximum Venting Open Factor {deltaC}
    5,                       !- Indoor and Outdoor Temperature Difference Upper Limit for Minimum Venting Open Factor {deltaC}
    0,                       !- Indoor and Outdoor Enthalpy Difference Lower Limit For Maximum Venting Open Factor {deltaJ/kg}
    300000,                  !- Indoor and Outdoor Enthalpy Difference Upper Limit for Minimum Venting Open Factor {deltaJ/kg}
    TLB Occupation Schedule, !- Venting Availability Schedule Name
    ,                        !- Occupant Ventilation Control Name
    PolygonHeight,           !- Equivalent Rectangle Method
    1;                       !- Equivalent Rectangle Aspect Ratio {dimensionless}

AirflowNetwork:MultiZone:Surface,
    P2_W10 (Kitchen),        !- Surface Name
    Windows,                 !- Leakage Component Name
    ,                        !- External Node Name
    0.45,                    !- Window/Door Opening Factor, or Crack Factor {dimensionless}
    ZoneLevel,               !- Ventilation Control Mode
    VN_19,                   !- Ventilation Control Zone Temperature Setpoint Schedule Name
    0.45,                    !- Minimum Venting Open Factor {dimensionless}
    0,                       !- Indoor and Outdoor Temperature Difference Lower Limit For Maximum Venting Open Factor {deltaC}
    5,                       !- Indoor and Outdoor Temperature Difference Upper Limit for Minimum Venting Open Factor {deltaC}
    0,                       !- Indoor and Outdoor Enthalpy Difference Lower Limit For Maximum Venting Open Factor {deltaJ/kg}
    300000,                  !- Indoor and Outdoor Enthalpy Difference Upper Limit for Minimum Venting Open Factor {deltaJ/kg}
    TLB Occupation Schedule, !- Venting Availability Schedule Name
    ,                        !- Occupant Ventilation Control Name
    PolygonHeight,           !- Equivalent Rectangle Method
    1;                       !- Equivalent Rectangle Aspect Ratio {dimensionless}

AirflowNetwork:MultiZone:Surface,
    P2_W11,                  !- Surface Name
    Windows,                 !- Leakage Component Name
    ,                        !- External Node Name
    0.45,                    !- Window/Door Opening Factor, or Crack Factor {dimensionless}
    ZoneLevel,               !- Ventilation Control Mode
    VN_19,                   !- Ventilation Control Zone Temperature Setpoint Schedule Name
    0.45,                    !- Minimum Venting Open Factor {dimensionless}
    0,                       !- Indoor and Outdoor Temperature Difference Lower Limit For Maximum Venting Open Factor {deltaC}
    5,                       !- Indoor and Outdoor Temperature Difference Upper Limit for Minimum Venting Open Factor {deltaC}
    0,                       !- Indoor and Outdoor Enthalpy Difference Lower Limit For Maximum Venting Open Factor {deltaJ/kg}
    300000,                  !- Indoor and Outdoor Enthalpy Difference Upper Limit for Minimum Venting Open Factor {deltaJ/kg}
    TLB Occupation Schedule, !- Venting Availability Schedule Name
    ,                        !- Occupant Ventilation Control Name
    PolygonHeight,           !- Equivalent Rectangle Method
    1;                       !- Equivalent Rectangle Aspect Ratio {dimensionless}

AirflowNetwork:MultiZone:Surface,
    P2_W12,                  !- Surface Name
    Windows,                 !- Leakage Component Name
    ,                        !- External Node Name
    0.45,                    !- Window/Door Opening Factor, or Crack Factor {dimensionless}
    ZoneLevel,               !- Ventilation Control Mode
    VN_19,                   !- Ventilation Control Zone Temperature Setpoint Schedule Name
    0.45,                    !- Minimum Venting Open Factor {dimensionless}
    0,                       !- Indoor and Outdoor Temperature Difference Lower Limit For Maximum Venting Open Factor {deltaC}
    5,                       !- Indoor and Outdoor Temperature Difference Upper Limit for Minimum Venting Open Factor {deltaC}
    0,                       !- Indoor and Outdoor Enthalpy Difference Lower Limit For Maximum Venting Open Factor {deltaJ/kg}
    300000,                  !- Indoor and Outdoor Enthalpy Difference Upper Limit for Minimum Venting Open Factor {deltaJ/kg}
    TLB Occupation Schedule, !- Venting Availability Schedule Name
    ,                        !- Occupant Ventilation Control Name
    PolygonHeight,           !- Equivalent Rectangle Method
    1;                       !- Equivalent Rectangle Aspect Ratio {dimensionless}

AirflowNetwork:MultiZone:Surface,
    P2_W13 (Door),           !- Surface Name
    Doors,                   !- Leakage Component Name
    ,                        !- External Node Name
    0.45,                    !- Window/Door Opening Factor, or Crack Factor {dimensionless}
    ZoneLevel,               !- Ventilation Control Mode
    VN_19,                   !- Ventilation Control Zone Temperature Setpoint Schedule Name
    0.45,                    !- Minimum Venting Open Factor {dimensionless}
    0,                       !- Indoor and Outdoor Temperature Difference Lower Limit For Maximum Venting Open Factor {deltaC}
    5,                       !- Indoor and Outdoor Temperature Difference Upper Limit for Minimum Venting Open Factor {deltaC}
    0,                       !- Indoor and Outdoor Enthalpy Difference Lower Limit For Maximum Venting Open Factor {deltaJ/kg}
    300000,                  !- Indoor and Outdoor Enthalpy Difference Upper Limit for Minimum Venting Open Factor {deltaJ/kg}
    TLB Occupation Schedule, !- Venting Availability Schedule Name
    ,                        !- Occupant Ventilation Control Name
    PolygonHeight,           !- Equivalent Rectangle Method
    1;                       !- Equivalent Rectangle Aspect Ratio {dimensionless}

AirflowNetwork:MultiZone:Surface,
    P2_W14 (WC),             !- Surface Name
    Windows,                 !- Leakage Component Name
    ,                        !- External Node Name
    0.45,                    !- Window/Door Opening Factor, or Crack Factor {dimensionless}
    ZoneLevel,               !- Ventilation Control Mode
    VN_19,                   !- Ventilation Control Zone Temperature Setpoint Schedule Name
    0.45,                    !- Minimum Venting Open Factor {dimensionless}
    0,                       !- Indoor and Outdoor Temperature Difference Lower Limit For Maximum Venting Open Factor {deltaC}
    5,                       !- Indoor and Outdoor Temperature Difference Upper Limit for Minimum Venting Open Factor {deltaC}
    0,                       !- Indoor and Outdoor Enthalpy Difference Lower Limit For Maximum Venting Open Factor {deltaJ/kg}
    300000,                  !- Indoor and Outdoor Enthalpy Difference Upper Limit for Minimum Venting Open Factor {deltaJ/kg}
    TLB Occupation Schedule, !- Venting Availability Schedule Name
    ,                        !- Occupant Ventilation Control Name
    PolygonHeight,           !- Equivalent Rectangle Method
    1;                       !- Equivalent Rectangle Aspect Ratio {dimensionless}

AirflowNetwork:MultiZone:Surface,
    P2_W15 (Kitchen),        !- Surface Name
    Windows,                 !- Leakage Component Name
    ,                        !- External Node Name
    0.45,                    !- Window/Door Opening Factor, or Crack Factor {dimensionless}
    ZoneLevel,               !- Ventilation Control Mode
    VN_19,                   !- Ventilation Control Zone Temperature Setpoint Schedule Name
    0.45,                    !- Minimum Venting Open Factor {dimensionless}
    0,                       !- Indoor and Outdoor Temperature Difference Lower Limit For Maximum Venting Open Factor {deltaC}
    5,                       !- Indoor and Outdoor Temperature Difference Upper Limit for Minimum Venting Open Factor {deltaC}
    0,                       !- Indoor and Outdoor Enthalpy Difference Lower Limit For Maximum Venting Open Factor {deltaJ/kg}
    300000,                  !- Indoor and Outdoor Enthalpy Difference Upper Limit for Minimum Venting Open Factor {deltaJ/kg}
    TLB Occupation Schedule, !- Venting Availability Schedule Name
    ,                        !- Occupant Ventilation Control Name
    PolygonHeight,           !- Equivalent Rectangle Method
    1;                       !- Equivalent Rectangle Aspect Ratio {dimensionless}

AirflowNetwork:MultiZone:Surface,
    P2_W16,                  !- Surface Name
    Windows,                 !- Leakage Component Name
    ,                        !- External Node Name
    0.45,                    !- Window/Door Opening Factor, or Crack Factor {dimensionless}
    ZoneLevel,               !- Ventilation Control Mode
    VN_19,                   !- Ventilation Control Zone Temperature Setpoint Schedule Name
    0.45,                    !- Minimum Venting Open Factor {dimensionless}
    0,                       !- Indoor and Outdoor Temperature Difference Lower Limit For Maximum Venting Open Factor {deltaC}
    5,                       !- Indoor and Outdoor Temperature Difference Upper Limit for Minimum Venting Open Factor {deltaC}
    0,                       !- Indoor and Outdoor Enthalpy Difference Lower Limit For Maximum Venting Open Factor {deltaJ/kg}
    300000,                  !- Indoor and Outdoor Enthalpy Difference Upper Limit for Minimum Venting Open Factor {deltaJ/kg}
    TLB Occupation Schedule, !- Venting Availability Schedule Name
    ,                        !- Occupant Ventilation Control Name
    PolygonHeight,           !- Equivalent Rectangle Method
    1;                       !- Equivalent Rectangle Aspect Ratio {dimensionless}

AirflowNetwork:MultiZone:Surface,
    P2_W17,                  !- Surface Name
    Windows,                 !- Leakage Component Name
    ,                        !- External Node Name
    0.45,                    !- Window/Door Opening Factor, or Crack Factor {dimensionless}
    ZoneLevel,               !- Ventilation Control Mode
    VN_19,                   !- Ventilation Control Zone Temperature Setpoint Schedule Name
    0.45,                    !- Minimum Venting Open Factor {dimensionless}
    0,                       !- Indoor and Outdoor Temperature Difference Lower Limit For Maximum Venting Open Factor {deltaC}
    5,                       !- Indoor and Outdoor Temperature Difference Upper Limit for Minimum Venting Open Factor {deltaC}
    0,                       !- Indoor and Outdoor Enthalpy Difference Lower Limit For Maximum Venting Open Factor {deltaJ/kg}
    300000,                  !- Indoor and Outdoor Enthalpy Difference Upper Limit for Minimum Venting Open Factor {deltaJ/kg}
    TLB Occupation Schedule, !- Venting Availability Schedule Name
    ,                        !- Occupant Ventilation Control Name
    PolygonHeight,           !- Equivalent Rectangle Method
    1;                       !- Equivalent Rectangle Aspect Ratio {dimensionless}

AirflowNetwork:MultiZone:Surface,
    P2_W18 (Door),           !- Surface Name
    Doors,                   !- Leakage Component Name
    ,                        !- External Node Name
    0.45,                    !- Window/Door Opening Factor, or Crack Factor {dimensionless}
    ZoneLevel,               !- Ventilation Control Mode
    VN_19,                   !- Ventilation Control Zone Temperature Setpoint Schedule Name
    0.45,                    !- Minimum Venting Open Factor {dimensionless}
    0,                       !- Indoor and Outdoor Temperature Difference Lower Limit For Maximum Venting Open Factor {deltaC}
    5,                       !- Indoor and Outdoor Temperature Difference Upper Limit for Minimum Venting Open Factor {deltaC}
    0,                       !- Indoor and Outdoor Enthalpy Difference Lower Limit For Maximum Venting Open Factor {deltaJ/kg}
    300000,                  !- Indoor and Outdoor Enthalpy Difference Upper Limit for Minimum Venting Open Factor {deltaJ/kg}
    TLB Occupation Schedule, !- Venting Availability Schedule Name
    ,                        !- Occupant Ventilation Control Name
    PolygonHeight,           !- Equivalent Rectangle Method
    1;                       !- Equivalent Rectangle Aspect Ratio {dimensionless}

AirflowNetwork:MultiZone:Surface,
    P2_W19 (WC),             !- Surface Name
    Windows,                 !- Leakage Component Name
    ,                        !- External Node Name
    0.45,                    !- Window/Door Opening Factor, or Crack Factor {dimensionless}
    ZoneLevel,               !- Ventilation Control Mode
    VN_19,                   !- Ventilation Control Zone Temperature Setpoint Schedule Name
    0.45,                    !- Minimum Venting Open Factor {dimensionless}
    0,                       !- Indoor and Outdoor Temperature Difference Lower Limit For Maximum Venting Open Factor {deltaC}
    5,                       !- Indoor and Outdoor Temperature Difference Upper Limit for Minimum Venting Open Factor {deltaC}
    0,                       !- Indoor and Outdoor Enthalpy Difference Lower Limit For Maximum Venting Open Factor {deltaJ/kg}
    300000,                  !- Indoor and Outdoor Enthalpy Difference Upper Limit for Minimum Venting Open Factor {deltaJ/kg}
    TLB Occupation Schedule, !- Venting Availability Schedule Name
    ,                        !- Occupant Ventilation Control Name
    PolygonHeight,           !- Equivalent Rectangle Method
    1;                       !- Equivalent Rectangle Aspect Ratio {dimensionless}

AirflowNetwork:MultiZone:Surface,
    P2_W20 (Kitchen),        !- Surface Name
    Windows,                 !- Leakage Component Name
    ,                        !- External Node Name
    0.45,                    !- Window/Door Opening Factor, or Crack Factor {dimensionless}
    ZoneLevel,               !- Ventilation Control Mode
    VN_19,                   !- Ventilation Control Zone Temperature Setpoint Schedule Name
    0.45,                    !- Minimum Venting Open Factor {dimensionless}
    0,                       !- Indoor and Outdoor Temperature Difference Lower Limit For Maximum Venting Open Factor {deltaC}
    5,                       !- Indoor and Outdoor Temperature Difference Upper Limit for Minimum Venting Open Factor {deltaC}
    0,                       !- Indoor and Outdoor Enthalpy Difference Lower Limit For Maximum Venting Open Factor {deltaJ/kg}
    300000,                  !- Indoor and Outdoor Enthalpy Difference Upper Limit for Minimum Venting Open Factor {deltaJ/kg}
    TLB Occupation Schedule, !- Venting Availability Schedule Name
    ,                        !- Occupant Ventilation Control Name
    PolygonHeight,           !- Equivalent Rectangle Method
    1;                       !- Equivalent Rectangle Aspect Ratio {dimensionless}

AirflowNetwork:MultiZone:Surface,
    P3_W01,                  !- Surface Name
    Windows,                 !- Leakage Component Name
    ,                        !- External Node Name
    0.45,                    !- Window/Door Opening Factor, or Crack Factor {dimensionless}
    ZoneLevel,               !- Ventilation Control Mode
    VN_19,                   !- Ventilation Control Zone Temperature Setpoint Schedule Name
    0.45,                    !- Minimum Venting Open Factor {dimensionless}
    0,                       !- Indoor and Outdoor Temperature Difference Lower Limit For Maximum Venting Open Factor {deltaC}
    5,                       !- Indoor and Outdoor Temperature Difference Upper Limit for Minimum Venting Open Factor {deltaC}
    0,                       !- Indoor and Outdoor Enthalpy Difference Lower Limit For Maximum Venting Open Factor {deltaJ/kg}
    300000,                  !- Indoor and Outdoor Enthalpy Difference Upper Limit for Minimum Venting Open Factor {deltaJ/kg}
    TLB Occupation Schedule, !- Venting Availability Schedule Name
    ,                        !- Occupant Ventilation Control Name
    PolygonHeight,           !- Equivalent Rectangle Method
    1;                       !- Equivalent Rectangle Aspect Ratio {dimensionless}

AirflowNetwork:MultiZone:Surface,
    P3_W02,                  !- Surface Name
    Windows,                 !- Leakage Component Name
    ,                        !- External Node Name
    0.45,                    !- Window/Door Opening Factor, or Crack Factor {dimensionless}
    ZoneLevel,               !- Ventilation Control Mode
    VN_19,                   !- Ventilation Control Zone Temperature Setpoint Schedule Name
    0.45,                    !- Minimum Venting Open Factor {dimensionless}
    0,                       !- Indoor and Outdoor Temperature Difference Lower Limit For Maximum Venting Open Factor {deltaC}
    5,                       !- Indoor and Outdoor Temperature Difference Upper Limit for Minimum Venting Open Factor {deltaC}
    0,                       !- Indoor and Outdoor Enthalpy Difference Lower Limit For Maximum Venting Open Factor {deltaJ/kg}
    300000,                  !- Indoor and Outdoor Enthalpy Difference Upper Limit for Minimum Venting Open Factor {deltaJ/kg}
    TLB Occupation Schedule, !- Venting Availability Schedule Name
    ,                        !- Occupant Ventilation Control Name
    PolygonHeight,           !- Equivalent Rectangle Method
    1;                       !- Equivalent Rectangle Aspect Ratio {dimensionless}

AirflowNetwork:MultiZone:Surface,
    P3_W03 (Door),           !- Surface Name
    Doors,                   !- Leakage Component Name
    ,                        !- External Node Name
    0.45,                    !- Window/Door Opening Factor, or Crack Factor {dimensionless}
    ZoneLevel,               !- Ventilation Control Mode
    VN_19,                   !- Ventilation Control Zone Temperature Setpoint Schedule Name
    0.45,                    !- Minimum Venting Open Factor {dimensionless}
    0,                       !- Indoor and Outdoor Temperature Difference Lower Limit For Maximum Venting Open Factor {deltaC}
    5,                       !- Indoor and Outdoor Temperature Difference Upper Limit for Minimum Venting Open Factor {deltaC}
    0,                       !- Indoor and Outdoor Enthalpy Difference Lower Limit For Maximum Venting Open Factor {deltaJ/kg}
    300000,                  !- Indoor and Outdoor Enthalpy Difference Upper Limit for Minimum Venting Open Factor {deltaJ/kg}
    TLB Occupation Schedule, !- Venting Availability Schedule Name
    ,                        !- Occupant Ventilation Control Name
    PolygonHeight,           !- Equivalent Rectangle Method
    1;                       !- Equivalent Rectangle Aspect Ratio {dimensionless}

AirflowNetwork:MultiZone:Surface,
    P3_W04 (WC),             !- Surface Name
    Windows,                 !- Leakage Component Name
    ,                        !- External Node Name
    0.45,                    !- Window/Door Opening Factor, or Crack Factor {dimensionless}
    ZoneLevel,               !- Ventilation Control Mode
    VN_19,                   !- Ventilation Control Zone Temperature Setpoint Schedule Name
    0.45,                    !- Minimum Venting Open Factor {dimensionless}
    0,                       !- Indoor and Outdoor Temperature Difference Lower Limit For Maximum Venting Open Factor {deltaC}
    5,                       !- Indoor and Outdoor Temperature Difference Upper Limit for Minimum Venting Open Factor {deltaC}
    0,                       !- Indoor and Outdoor Enthalpy Difference Lower Limit For Maximum Venting Open Factor {deltaJ/kg}
    300000,                  !- Indoor and Outdoor Enthalpy Difference Upper Limit for Minimum Venting Open Factor {deltaJ/kg}
    TLB Occupation Schedule, !- Venting Availability Schedule Name
    ,                        !- Occupant Ventilation Control Name
    PolygonHeight,           !- Equivalent Rectangle Method
    1;                       !- Equivalent Rectangle Aspect Ratio {dimensionless}

AirflowNetwork:MultiZone:Surface,
    P3_W05 (Kitchen),        !- Surface Name
    Windows,                 !- Leakage Component Name
    ,                        !- External Node Name
    0.45,                    !- Window/Door Opening Factor, or Crack Factor {dimensionless}
    ZoneLevel,               !- Ventilation Control Mode
    VN_19,                   !- Ventilation Control Zone Temperature Setpoint Schedule Name
    0.45,                    !- Minimum Venting Open Factor {dimensionless}
    0,                       !- Indoor and Outdoor Temperature Difference Lower Limit For Maximum Venting Open Factor {deltaC}
    5,                       !- Indoor and Outdoor Temperature Difference Upper Limit for Minimum Venting Open Factor {deltaC}
    0,                       !- Indoor and Outdoor Enthalpy Difference Lower Limit For Maximum Venting Open Factor {deltaJ/kg}
    300000,                  !- Indoor and Outdoor Enthalpy Difference Upper Limit for Minimum Venting Open Factor {deltaJ/kg}
    TLB Occupation Schedule, !- Venting Availability Schedule Name
    ,                        !- Occupant Ventilation Control Name
    PolygonHeight,           !- Equivalent Rectangle Method
    1;                       !- Equivalent Rectangle Aspect Ratio {dimensionless}

AirflowNetwork:MultiZone:Surface,
    P3_W06,                  !- Surface Name
    Windows,                 !- Leakage Component Name
    ,                        !- External Node Name
    0.45,                    !- Window/Door Opening Factor, or Crack Factor {dimensionless}
    ZoneLevel,               !- Ventilation Control Mode
    VN_19,                   !- Ventilation Control Zone Temperature Setpoint Schedule Name
    0.45,                    !- Minimum Venting Open Factor {dimensionless}
    0,                       !- Indoor and Outdoor Temperature Difference Lower Limit For Maximum Venting Open Factor {deltaC}
    5,                       !- Indoor and Outdoor Temperature Difference Upper Limit for Minimum Venting Open Factor {deltaC}
    0,                       !- Indoor and Outdoor Enthalpy Difference Lower Limit For Maximum Venting Open Factor {deltaJ/kg}
    300000,                  !- Indoor and Outdoor Enthalpy Difference Upper Limit for Minimum Venting Open Factor {deltaJ/kg}
    TLB Occupation Schedule, !- Venting Availability Schedule Name
    ,                        !- Occupant Ventilation Control Name
    PolygonHeight,           !- Equivalent Rectangle Method
    1;                       !- Equivalent Rectangle Aspect Ratio {dimensionless}

AirflowNetwork:MultiZone:Surface,
    P3_W07,                  !- Surface Name
    Windows,                 !- Leakage Component Name
    ,                        !- External Node Name
    0.45,                    !- Window/Door Opening Factor, or Crack Factor {dimensionless}
    ZoneLevel,               !- Ventilation Control Mode
    VN_19,                   !- Ventilation Control Zone Temperature Setpoint Schedule Name
    0.45,                    !- Minimum Venting Open Factor {dimensionless}
    0,                       !- Indoor and Outdoor Temperature Difference Lower Limit For Maximum Venting Open Factor {deltaC}
    5,                       !- Indoor and Outdoor Temperature Difference Upper Limit for Minimum Venting Open Factor {deltaC}
    0,                       !- Indoor and Outdoor Enthalpy Difference Lower Limit For Maximum Venting Open Factor {deltaJ/kg}
    300000,                  !- Indoor and Outdoor Enthalpy Difference Upper Limit for Minimum Venting Open Factor {deltaJ/kg}
    TLB Occupation Schedule, !- Venting Availability Schedule Name
    ,                        !- Occupant Ventilation Control Name
    PolygonHeight,           !- Equivalent Rectangle Method
    1;                       !- Equivalent Rectangle Aspect Ratio {dimensionless}

AirflowNetwork:MultiZone:Surface,
    P3_W08 (Door),           !- Surface Name
    Doors,                   !- Leakage Component Name
    ,                        !- External Node Name
    0.45,                    !- Window/Door Opening Factor, or Crack Factor {dimensionless}
    ZoneLevel,               !- Ventilation Control Mode
    VN_19,                   !- Ventilation Control Zone Temperature Setpoint Schedule Name
    0.45,                    !- Minimum Venting Open Factor {dimensionless}
    0,                       !- Indoor and Outdoor Temperature Difference Lower Limit For Maximum Venting Open Factor {deltaC}
    5,                       !- Indoor and Outdoor Temperature Difference Upper Limit for Minimum Venting Open Factor {deltaC}
    0,                       !- Indoor and Outdoor Enthalpy Difference Lower Limit For Maximum Venting Open Factor {deltaJ/kg}
    300000,                  !- Indoor and Outdoor Enthalpy Difference Upper Limit for Minimum Venting Open Factor {deltaJ/kg}
    TLB Occupation Schedule, !- Venting Availability Schedule Name
    ,                        !- Occupant Ventilation Control Name
    PolygonHeight,           !- Equivalent Rectangle Method
    1;                       !- Equivalent Rectangle Aspect Ratio {dimensionless}

AirflowNetwork:MultiZone:Surface,
    P3_W09 (WC),             !- Surface Name
    Windows,                 !- Leakage Component Name
    ,                        !- External Node Name
    0.45,                    !- Window/Door Opening Factor, or Crack Factor {dimensionless}
    ZoneLevel,               !- Ventilation Control Mode
    VN_19,                   !- Ventilation Control Zone Temperature Setpoint Schedule Name
    0.45,                    !- Minimum Venting Open Factor {dimensionless}
    0,                       !- Indoor and Outdoor Temperature Difference Lower Limit For Maximum Venting Open Factor {deltaC}
    5,                       !- Indoor and Outdoor Temperature Difference Upper Limit for Minimum Venting Open Factor {deltaC}
    0,                       !- Indoor and Outdoor Enthalpy Difference Lower Limit For Maximum Venting Open Factor {deltaJ/kg}
    300000,                  !- Indoor and Outdoor Enthalpy Difference Upper Limit for Minimum Venting Open Factor {deltaJ/kg}
    TLB Occupation Schedule, !- Venting Availability Schedule Name
    ,                        !- Occupant Ventilation Control Name
    PolygonHeight,           !- Equivalent Rectangle Method
    1;                       !- Equivalent Rectangle Aspect Ratio {dimensionless}

AirflowNetwork:MultiZone:Surface,
    P3_W10 (Kitchen),        !- Surface Name
    Windows,                 !- Leakage Component Name
    ,                        !- External Node Name
    0.45,                    !- Window/Door Opening Factor, or Crack Factor {dimensionless}
    ZoneLevel,               !- Ventilation Control Mode
    VN_19,                   !- Ventilation Control Zone Temperature Setpoint Schedule Name
    0.45,                    !- Minimum Venting Open Factor {dimensionless}
    0,                       !- Indoor and Outdoor Temperature Difference Lower Limit For Maximum Venting Open Factor {deltaC}
    5,                       !- Indoor and Outdoor Temperature Difference Upper Limit for Minimum Venting Open Factor {deltaC}
    0,                       !- Indoor and Outdoor Enthalpy Difference Lower Limit For Maximum Venting Open Factor {deltaJ/kg}
    300000,                  !- Indoor and Outdoor Enthalpy Difference Upper Limit for Minimum Venting Open Factor {deltaJ/kg}
    TLB Occupation Schedule, !- Venting Availability Schedule Name
    ,                        !- Occupant Ventilation Control Name
    PolygonHeight,           !- Equivalent Rectangle Method
    1;                       !- Equivalent Rectangle Aspect Ratio {dimensionless}

AirflowNetwork:MultiZone:Surface,
    P3_W11,                  !- Surface Name
    Windows,                 !- Leakage Component Name
    ,                        !- External Node Name
    0.45,                    !- Window/Door Opening Factor, or Crack Factor {dimensionless}
    ZoneLevel,               !- Ventilation Control Mode
    VN_19,                   !- Ventilation Control Zone Temperature Setpoint Schedule Name
    0.45,                    !- Minimum Venting Open Factor {dimensionless}
    0,                       !- Indoor and Outdoor Temperature Difference Lower Limit For Maximum Venting Open Factor {deltaC}
    5,                       !- Indoor and Outdoor Temperature Difference Upper Limit for Minimum Venting Open Factor {deltaC}
    0,                       !- Indoor and Outdoor Enthalpy Difference Lower Limit For Maximum Venting Open Factor {deltaJ/kg}
    300000,                  !- Indoor and Outdoor Enthalpy Difference Upper Limit for Minimum Venting Open Factor {deltaJ/kg}
    TLB Occupation Schedule, !- Venting Availability Schedule Name
    ,                        !- Occupant Ventilation Control Name
    PolygonHeight,           !- Equivalent Rectangle Method
    1;                       !- Equivalent Rectangle Aspect Ratio {dimensionless}

AirflowNetwork:MultiZone:Surface,
    P3_W12,                  !- Surface Name
    Windows,                 !- Leakage Component Name
    ,                        !- External Node Name
    0.45,                    !- Window/Door Opening Factor, or Crack Factor {dimensionless}
    ZoneLevel,               !- Ventilation Control Mode
    VN_19,                   !- Ventilation Control Zone Temperature Setpoint Schedule Name
    0.45,                    !- Minimum Venting Open Factor {dimensionless}
    0,                       !- Indoor and Outdoor Temperature Difference Lower Limit For Maximum Venting Open Factor {deltaC}
    5,                       !- Indoor and Outdoor Temperature Difference Upper Limit for Minimum Venting Open Factor {deltaC}
    0,                       !- Indoor and Outdoor Enthalpy Difference Lower Limit For Maximum Venting Open Factor {deltaJ/kg}
    300000,                  !- Indoor and Outdoor Enthalpy Difference Upper Limit for Minimum Venting Open Factor {deltaJ/kg}
    TLB Occupation Schedule, !- Venting Availability Schedule Name
    ,                        !- Occupant Ventilation Control Name
    PolygonHeight,           !- Equivalent Rectangle Method
    1;                       !- Equivalent Rectangle Aspect Ratio {dimensionless}

AirflowNetwork:MultiZone:Surface,
    P3_W13 (Door),           !- Surface Name
    Doors,                   !- Leakage Component Name
    ,                        !- External Node Name
    0.45,                    !- Window/Door Opening Factor, or Crack Factor {dimensionless}
    ZoneLevel,               !- Ventilation Control Mode
    VN_19,                   !- Ventilation Control Zone Temperature Setpoint Schedule Name
    0.45,                    !- Minimum Venting Open Factor {dimensionless}
    0,                       !- Indoor and Outdoor Temperature Difference Lower Limit For Maximum Venting Open Factor {deltaC}
    5,                       !- Indoor and Outdoor Temperature Difference Upper Limit for Minimum Venting Open Factor {deltaC}
    0,                       !- Indoor and Outdoor Enthalpy Difference Lower Limit For Maximum Venting Open Factor {deltaJ/kg}
    300000,                  !- Indoor and Outdoor Enthalpy Difference Upper Limit for Minimum Venting Open Factor {deltaJ/kg}
    TLB Occupation Schedule, !- Venting Availability Schedule Name
    ,                        !- Occupant Ventilation Control Name
    PolygonHeight,           !- Equivalent Rectangle Method
    1;                       !- Equivalent Rectangle Aspect Ratio {dimensionless}

AirflowNetwork:MultiZone:Surface,
    P3_W14 (WC),             !- Surface Name
    Windows,                 !- Leakage Component Name
    ,                        !- External Node Name
    0.45,                    !- Window/Door Opening Factor, or Crack Factor {dimensionless}
    ZoneLevel,               !- Ventilation Control Mode
    VN_19,                   !- Ventilation Control Zone Temperature Setpoint Schedule Name
    0.45,                    !- Minimum Venting Open Factor {dimensionless}
    0,                       !- Indoor and Outdoor Temperature Difference Lower Limit For Maximum Venting Open Factor {deltaC}
    5,                       !- Indoor and Outdoor Temperature Difference Upper Limit for Minimum Venting Open Factor {deltaC}
    0,                       !- Indoor and Outdoor Enthalpy Difference Lower Limit For Maximum Venting Open Factor {deltaJ/kg}
    300000,                  !- Indoor and Outdoor Enthalpy Difference Upper Limit for Minimum Venting Open Factor {deltaJ/kg}
    TLB Occupation Schedule, !- Venting Availability Schedule Name
    ,                        !- Occupant Ventilation Control Name
    PolygonHeight,           !- Equivalent Rectangle Method
    1;                       !- Equivalent Rectangle Aspect Ratio {dimensionless}

AirflowNetwork:MultiZone:Surface,
    P3_W15 (Kitchen),        !- Surface Name
    Windows,                 !- Leakage Component Name
    ,                        !- External Node Name
    0.45,                    !- Window/Door Opening Factor, or Crack Factor {dimensionless}
    ZoneLevel,               !- Ventilation Control Mode
    VN_19,                   !- Ventilation Control Zone Temperature Setpoint Schedule Name
    0.45,                    !- Minimum Venting Open Factor {dimensionless}
    0,                       !- Indoor and Outdoor Temperature Difference Lower Limit For Maximum Venting Open Factor {deltaC}
    5,                       !- Indoor and Outdoor Temperature Difference Upper Limit for Minimum Venting Open Factor {deltaC}
    0,                       !- Indoor and Outdoor Enthalpy Difference Lower Limit For Maximum Venting Open Factor {deltaJ/kg}
    300000,                  !- Indoor and Outdoor Enthalpy Difference Upper Limit for Minimum Venting Open Factor {deltaJ/kg}
    TLB Occupation Schedule, !- Venting Availability Schedule Name
    ,                        !- Occupant Ventilation Control Name
    PolygonHeight,           !- Equivalent Rectangle Method
    1;                       !- Equivalent Rectangle Aspect Ratio {dimensionless}

AirflowNetwork:MultiZone:Surface,
    P3_W16,                  !- Surface Name
    Windows,                 !- Leakage Component Name
    ,                        !- External Node Name
    0.45,                    !- Window/Door Opening Factor, or Crack Factor {dimensionless}
    ZoneLevel,               !- Ventilation Control Mode
    VN_19,                   !- Ventilation Control Zone Temperature Setpoint Schedule Name
    0.45,                    !- Minimum Venting Open Factor {dimensionless}
    0,                       !- Indoor and Outdoor Temperature Difference Lower Limit For Maximum Venting Open Factor {deltaC}
    5,                       !- Indoor and Outdoor Temperature Difference Upper Limit for Minimum Venting Open Factor {deltaC}
    0,                       !- Indoor and Outdoor Enthalpy Difference Lower Limit For Maximum Venting Open Factor {deltaJ/kg}
    300000,                  !- Indoor and Outdoor Enthalpy Difference Upper Limit for Minimum Venting Open Factor {deltaJ/kg}
    TLB Occupation Schedule, !- Venting Availability Schedule Name
    ,                        !- Occupant Ventilation Control Name
    PolygonHeight,           !- Equivalent Rectangle Method
    1;                       !- Equivalent Rectangle Aspect Ratio {dimensionless}

AirflowNetwork:MultiZone:Surface,
    P3_W17,                  !- Surface Name
    Windows,                 !- Leakage Component Name
    ,                        !- External Node Name
    0.45,                    !- Window/Door Opening Factor, or Crack Factor {dimensionless}
    ZoneLevel,               !- Ventilation Control Mode
    VN_19,                   !- Ventilation Control Zone Temperature Setpoint Schedule Name
    0.45,                    !- Minimum Venting Open Factor {dimensionless}
    0,                       !- Indoor and Outdoor Temperature Difference Lower Limit For Maximum Venting Open Factor {deltaC}
    5,                       !- Indoor and Outdoor Temperature Difference Upper Limit for Minimum Venting Open Factor {deltaC}
    0,                       !- Indoor and Outdoor Enthalpy Difference Lower Limit For Maximum Venting Open Factor {deltaJ/kg}
    300000,                  !- Indoor and Outdoor Enthalpy Difference Upper Limit for Minimum Venting Open Factor {deltaJ/kg}
    TLB Occupation Schedule, !- Venting Availability Schedule Name
    ,                        !- Occupant Ventilation Control Name
    PolygonHeight,           !- Equivalent Rectangle Method
    1;                       !- Equivalent Rectangle Aspect Ratio {dimensionless}

AirflowNetwork:MultiZone:Surface,
    P3_W18 (Door),           !- Surface Name
    Doors,                   !- Leakage Component Name
    ,                        !- External Node Name
    0.45,                    !- Window/Door Opening Factor, or Crack Factor {dimensionless}
    ZoneLevel,               !- Ventilation Control Mode
    VN_19,                   !- Ventilation Control Zone Temperature Setpoint Schedule Name
    0.45,                    !- Minimum Venting Open Factor {dimensionless}
    0,                       !- Indoor and Outdoor Temperature Difference Lower Limit For Maximum Venting Open Factor {deltaC}
    5,                       !- Indoor and Outdoor Temperature Difference Upper Limit for Minimum Venting Open Factor {deltaC}
    0,                       !- Indoor and Outdoor Enthalpy Difference Lower Limit For Maximum Venting Open Factor {deltaJ/kg}
    300000,                  !- Indoor and Outdoor Enthalpy Difference Upper Limit for Minimum Venting Open Factor {deltaJ/kg}
    TLB Occupation Schedule, !- Venting Availability Schedule Name
    ,                        !- Occupant Ventilation Control Name
    PolygonHeight,           !- Equivalent Rectangle Method
    1;                       !- Equivalent Rectangle Aspect Ratio {dimensionless}

AirflowNetwork:MultiZone:Surface,
    P3_W19 (WC),             !- Surface Name
    Windows,                 !- Leakage Component Name
    ,                        !- External Node Name
    0.45,                    !- Window/Door Opening Factor, or Crack Factor {dimensionless}
    ZoneLevel,               !- Ventilation Control Mode
    VN_19,                   !- Ventilation Control Zone Temperature Setpoint Schedule Name
    0.45,                    !- Minimum Venting Open Factor {dimensionless}
    0,                       !- Indoor and Outdoor Temperature Difference Lower Limit For Maximum Venting Open Factor {deltaC}
    5,                       !- Indoor and Outdoor Temperature Difference Upper Limit for Minimum Venting Open Factor {deltaC}
    0,                       !- Indoor and Outdoor Enthalpy Difference Lower Limit For Maximum Venting Open Factor {deltaJ/kg}
    300000,                  !- Indoor and Outdoor Enthalpy Difference Upper Limit for Minimum Venting Open Factor {deltaJ/kg}
    TLB Occupation Schedule, !- Venting Availability Schedule Name
    ,                        !- Occupant Ventilation Control Name
    PolygonHeight,           !- Equivalent Rectangle Method
    1;                       !- Equivalent Rectangle Aspect Ratio {dimensionless}

AirflowNetwork:MultiZone:Surface,
    P3_W20 (Kitchen),        !- Surface Name
    Windows,                 !- Leakage Component Name
    ,                        !- External Node Name
    0.45,                    !- Window/Door Opening Factor, or Crack Factor {dimensionless}
    ZoneLevel,               !- Ventilation Control Mode
    VN_19,                   !- Ventilation Control Zone Temperature Setpoint Schedule Name
    0.45,                    !- Minimum Venting Open Factor {dimensionless}
    0,                       !- Indoor and Outdoor Temperature Difference Lower Limit For Maximum Venting Open Factor {deltaC}
    5,                       !- Indoor and Outdoor Temperature Difference Upper Limit for Minimum Venting Open Factor {deltaC}
    0,                       !- Indoor and Outdoor Enthalpy Difference Lower Limit For Maximum Venting Open Factor {deltaJ/kg}
    300000,                  !- Indoor and Outdoor Enthalpy Difference Upper Limit for Minimum Venting Open Factor {deltaJ/kg}
    TLB Occupation Schedule, !- Venting Availability Schedule Name
    ,                        !- Occupant Ventilation Control Name
    PolygonHeight,           !- Equivalent Rectangle Method
    1;                       !- Equivalent Rectangle Aspect Ratio {dimensionless}

AirflowNetwork:MultiZone:Surface,
    P4_W01,                  !- Surface Name
    Windows,                 !- Leakage Component Name
    ,                        !- External Node Name
    0.45,                    !- Window/Door Opening Factor, or Crack Factor {dimensionless}
    ZoneLevel,               !- Ventilation Control Mode
    VN_19,                   !- Ventilation Control Zone Temperature Setpoint Schedule Name
    0.45,                    !- Minimum Venting Open Factor {dimensionless}
    0,                       !- Indoor and Outdoor Temperature Difference Lower Limit For Maximum Venting Open Factor {deltaC}
    5,                       !- Indoor and Outdoor Temperature Difference Upper Limit for Minimum Venting Open Factor {deltaC}
    0,                       !- Indoor and Outdoor Enthalpy Difference Lower Limit For Maximum Venting Open Factor {deltaJ/kg}
    300000,                  !- Indoor and Outdoor Enthalpy Difference Upper Limit for Minimum Venting Open Factor {deltaJ/kg}
    TLB Occupation Schedule, !- Venting Availability Schedule Name
    ,                        !- Occupant Ventilation Control Name
    PolygonHeight,           !- Equivalent Rectangle Method
    1;                       !- Equivalent Rectangle Aspect Ratio {dimensionless}

AirflowNetwork:MultiZone:Surface,
    P4_W02,                  !- Surface Name
    Windows,                 !- Leakage Component Name
    ,                        !- External Node Name
    0.45,                    !- Window/Door Opening Factor, or Crack Factor {dimensionless}
    ZoneLevel,               !- Ventilation Control Mode
    VN_19,                   !- Ventilation Control Zone Temperature Setpoint Schedule Name
    0.45,                    !- Minimum Venting Open Factor {dimensionless}
    0,                       !- Indoor and Outdoor Temperature Difference Lower Limit For Maximum Venting Open Factor {deltaC}
    5,                       !- Indoor and Outdoor Temperature Difference Upper Limit for Minimum Venting Open Factor {deltaC}
    0,                       !- Indoor and Outdoor Enthalpy Difference Lower Limit For Maximum Venting Open Factor {deltaJ/kg}
    300000,                  !- Indoor and Outdoor Enthalpy Difference Upper Limit for Minimum Venting Open Factor {deltaJ/kg}
    TLB Occupation Schedule, !- Venting Availability Schedule Name
    ,                        !- Occupant Ventilation Control Name
    PolygonHeight,           !- Equivalent Rectangle Method
    1;                       !- Equivalent Rectangle Aspect Ratio {dimensionless}

AirflowNetwork:MultiZone:Surface,
    P4_W03 (Door),           !- Surface Name
    Doors,                   !- Leakage Component Name
    ,                        !- External Node Name
    0.45,                    !- Window/Door Opening Factor, or Crack Factor {dimensionless}
    ZoneLevel,               !- Ventilation Control Mode
    VN_19,                   !- Ventilation Control Zone Temperature Setpoint Schedule Name
    0.45,                    !- Minimum Venting Open Factor {dimensionless}
    0,                       !- Indoor and Outdoor Temperature Difference Lower Limit For Maximum Venting Open Factor {deltaC}
    5,                       !- Indoor and Outdoor Temperature Difference Upper Limit for Minimum Venting Open Factor {deltaC}
    0,                       !- Indoor and Outdoor Enthalpy Difference Lower Limit For Maximum Venting Open Factor {deltaJ/kg}
    300000,                  !- Indoor and Outdoor Enthalpy Difference Upper Limit for Minimum Venting Open Factor {deltaJ/kg}
    TLB Occupation Schedule, !- Venting Availability Schedule Name
    ,                        !- Occupant Ventilation Control Name
    PolygonHeight,           !- Equivalent Rectangle Method
    1;                       !- Equivalent Rectangle Aspect Ratio {dimensionless}

AirflowNetwork:MultiZone:Surface,
    P4_W04 (WC),             !- Surface Name
    Windows,                 !- Leakage Component Name
    ,                        !- External Node Name
    0.45,                    !- Window/Door Opening Factor, or Crack Factor {dimensionless}
    ZoneLevel,               !- Ventilation Control Mode
    VN_19,                   !- Ventilation Control Zone Temperature Setpoint Schedule Name
    0.45,                    !- Minimum Venting Open Factor {dimensionless}
    0,                       !- Indoor and Outdoor Temperature Difference Lower Limit For Maximum Venting Open Factor {deltaC}
    5,                       !- Indoor and Outdoor Temperature Difference Upper Limit for Minimum Venting Open Factor {deltaC}
    0,                       !- Indoor and Outdoor Enthalpy Difference Lower Limit For Maximum Venting Open Factor {deltaJ/kg}
    300000,                  !- Indoor and Outdoor Enthalpy Difference Upper Limit for Minimum Venting Open Factor {deltaJ/kg}
    TLB Occupation Schedule, !- Venting Availability Schedule Name
    ,                        !- Occupant Ventilation Control Name
    PolygonHeight,           !- Equivalent Rectangle Method
    1;                       !- Equivalent Rectangle Aspect Ratio {dimensionless}

AirflowNetwork:MultiZone:Surface,
    P4_W05 (Kitchen),        !- Surface Name
    Windows,                 !- Leakage Component Name
    ,                        !- External Node Name
    0.45,                    !- Window/Door Opening Factor, or Crack Factor {dimensionless}
    ZoneLevel,               !- Ventilation Control Mode
    VN_19,                   !- Ventilation Control Zone Temperature Setpoint Schedule Name
    0.45,                    !- Minimum Venting Open Factor {dimensionless}
    0,                       !- Indoor and Outdoor Temperature Difference Lower Limit For Maximum Venting Open Factor {deltaC}
    5,                       !- Indoor and Outdoor Temperature Difference Upper Limit for Minimum Venting Open Factor {deltaC}
    0,                       !- Indoor and Outdoor Enthalpy Difference Lower Limit For Maximum Venting Open Factor {deltaJ/kg}
    300000,                  !- Indoor and Outdoor Enthalpy Difference Upper Limit for Minimum Venting Open Factor {deltaJ/kg}
    TLB Occupation Schedule, !- Venting Availability Schedule Name
    ,                        !- Occupant Ventilation Control Name
    PolygonHeight,           !- Equivalent Rectangle Method
    1;                       !- Equivalent Rectangle Aspect Ratio {dimensionless}

AirflowNetwork:MultiZone:Surface,
    P4_W06,                  !- Surface Name
    Windows,                 !- Leakage Component Name
    ,                        !- External Node Name
    0.45,                    !- Window/Door Opening Factor, or Crack Factor {dimensionless}
    ZoneLevel,               !- Ventilation Control Mode
    VN_19,                   !- Ventilation Control Zone Temperature Setpoint Schedule Name
    0.45,                    !- Minimum Venting Open Factor {dimensionless}
    0,                       !- Indoor and Outdoor Temperature Difference Lower Limit For Maximum Venting Open Factor {deltaC}
    5,                       !- Indoor and Outdoor Temperature Difference Upper Limit for Minimum Venting Open Factor {deltaC}
    0,                       !- Indoor and Outdoor Enthalpy Difference Lower Limit For Maximum Venting Open Factor {deltaJ/kg}
    300000,                  !- Indoor and Outdoor Enthalpy Difference Upper Limit for Minimum Venting Open Factor {deltaJ/kg}
    TLB Occupation Schedule, !- Venting Availability Schedule Name
    ,                        !- Occupant Ventilation Control Name
    PolygonHeight,           !- Equivalent Rectangle Method
    1;                       !- Equivalent Rectangle Aspect Ratio {dimensionless}

AirflowNetwork:MultiZone:Surface,
    P4_W07,                  !- Surface Name
    Windows,                 !- Leakage Component Name
    ,                        !- External Node Name
    0.45,                    !- Window/Door Opening Factor, or Crack Factor {dimensionless}
    ZoneLevel,               !- Ventilation Control Mode
    VN_19,                   !- Ventilation Control Zone Temperature Setpoint Schedule Name
    0.45,                    !- Minimum Venting Open Factor {dimensionless}
    0,                       !- Indoor and Outdoor Temperature Difference Lower Limit For Maximum Venting Open Factor {deltaC}
    5,                       !- Indoor and Outdoor Temperature Difference Upper Limit for Minimum Venting Open Factor {deltaC}
    0,                       !- Indoor and Outdoor Enthalpy Difference Lower Limit For Maximum Venting Open Factor {deltaJ/kg}
    300000,                  !- Indoor and Outdoor Enthalpy Difference Upper Limit for Minimum Venting Open Factor {deltaJ/kg}
    TLB Occupation Schedule, !- Venting Availability Schedule Name
    ,                        !- Occupant Ventilation Control Name
    PolygonHeight,           !- Equivalent Rectangle Method
    1;                       !- Equivalent Rectangle Aspect Ratio {dimensionless}

AirflowNetwork:MultiZone:Surface,
    P4_W08 (Door),           !- Surface Name
    Doors,                   !- Leakage Component Name
    ,                        !- External Node Name
    0.45,                    !- Window/Door Opening Factor, or Crack Factor {dimensionless}
    ZoneLevel,               !- Ventilation Control Mode
    VN_19,                   !- Ventilation Control Zone Temperature Setpoint Schedule Name
    0.45,                    !- Minimum Venting Open Factor {dimensionless}
    0,                       !- Indoor and Outdoor Temperature Difference Lower Limit For Maximum Venting Open Factor {deltaC}
    5,                       !- Indoor and Outdoor Temperature Difference Upper Limit for Minimum Venting Open Factor {deltaC}
    0,                       !- Indoor and Outdoor Enthalpy Difference Lower Limit For Maximum Venting Open Factor {deltaJ/kg}
    300000,                  !- Indoor and Outdoor Enthalpy Difference Upper Limit for Minimum Venting Open Factor {deltaJ/kg}
    TLB Occupation Schedule, !- Venting Availability Schedule Name
    ,                        !- Occupant Ventilation Control Name
    PolygonHeight,           !- Equivalent Rectangle Method
    1;                       !- Equivalent Rectangle Aspect Ratio {dimensionless}

AirflowNetwork:MultiZone:Surface,
    P4_W09 (WC),             !- Surface Name
    Windows,                 !- Leakage Component Name
    ,                        !- External Node Name
    0.45,                    !- Window/Door Opening Factor, or Crack Factor {dimensionless}
    ZoneLevel,               !- Ventilation Control Mode
    VN_19,                   !- Ventilation Control Zone Temperature Setpoint Schedule Name
    0.45,                    !- Minimum Venting Open Factor {dimensionless}
    0,                       !- Indoor and Outdoor Temperature Difference Lower Limit For Maximum Venting Open Factor {deltaC}
    5,                       !- Indoor and Outdoor Temperature Difference Upper Limit for Minimum Venting Open Factor {deltaC}
    0,                       !- Indoor and Outdoor Enthalpy Difference Lower Limit For Maximum Venting Open Factor {deltaJ/kg}
    300000,                  !- Indoor and Outdoor Enthalpy Difference Upper Limit for Minimum Venting Open Factor {deltaJ/kg}
    TLB Occupation Schedule, !- Venting Availability Schedule Name
    ,                        !- Occupant Ventilation Control Name
    PolygonHeight,           !- Equivalent Rectangle Method
    1;                       !- Equivalent Rectangle Aspect Ratio {dimensionless}

AirflowNetwork:MultiZone:Surface,
    P4_W10 (Kitchen),        !- Surface Name
    Windows,                 !- Leakage Component Name
    ,                        !- External Node Name
    0.45,                    !- Window/Door Opening Factor, or Crack Factor {dimensionless}
    ZoneLevel,               !- Ventilation Control Mode
    VN_19,                   !- Ventilation Control Zone Temperature Setpoint Schedule Name
    0.45,                    !- Minimum Venting Open Factor {dimensionless}
    0,                       !- Indoor and Outdoor Temperature Difference Lower Limit For Maximum Venting Open Factor {deltaC}
    5,                       !- Indoor and Outdoor Temperature Difference Upper Limit for Minimum Venting Open Factor {deltaC}
    0,                       !- Indoor and Outdoor Enthalpy Difference Lower Limit For Maximum Venting Open Factor {deltaJ/kg}
    300000,                  !- Indoor and Outdoor Enthalpy Difference Upper Limit for Minimum Venting Open Factor {deltaJ/kg}
    TLB Occupation Schedule, !- Venting Availability Schedule Name
    ,                        !- Occupant Ventilation Control Name
    PolygonHeight,           !- Equivalent Rectangle Method
    1;                       !- Equivalent Rectangle Aspect Ratio {dimensionless}

AirflowNetwork:MultiZone:Surface,
    P4_W11,                  !- Surface Name
    Windows,                 !- Leakage Component Name
    ,                        !- External Node Name
    0.45,                    !- Window/Door Opening Factor, or Crack Factor {dimensionless}
    ZoneLevel,               !- Ventilation Control Mode
    VN_19,                   !- Ventilation Control Zone Temperature Setpoint Schedule Name
    0.45,                    !- Minimum Venting Open Factor {dimensionless}
    0,                       !- Indoor and Outdoor Temperature Difference Lower Limit For Maximum Venting Open Factor {deltaC}
    5,                       !- Indoor and Outdoor Temperature Difference Upper Limit for Minimum Venting Open Factor {deltaC}
    0,                       !- Indoor and Outdoor Enthalpy Difference Lower Limit For Maximum Venting Open Factor {deltaJ/kg}
    300000,                  !- Indoor and Outdoor Enthalpy Difference Upper Limit for Minimum Venting Open Factor {deltaJ/kg}
    TLB Occupation Schedule, !- Venting Availability Schedule Name
    ,                        !- Occupant Ventilation Control Name
    PolygonHeight,           !- Equivalent Rectangle Method
    1;                       !- Equivalent Rectangle Aspect Ratio {dimensionless}

AirflowNetwork:MultiZone:Surface,
    P4_W12,                  !- Surface Name
    Windows,                 !- Leakage Component Name
    ,                        !- External Node Name
    0.45,                    !- Window/Door Opening Factor, or Crack Factor {dimensionless}
    ZoneLevel,               !- Ventilation Control Mode
    VN_19,                   !- Ventilation Control Zone Temperature Setpoint Schedule Name
    0.45,                    !- Minimum Venting Open Factor {dimensionless}
    0,                       !- Indoor and Outdoor Temperature Difference Lower Limit For Maximum Venting Open Factor {deltaC}
    5,                       !- Indoor and Outdoor Temperature Difference Upper Limit for Minimum Venting Open Factor {deltaC}
    0,                       !- Indoor and Outdoor Enthalpy Difference Lower Limit For Maximum Venting Open Factor {deltaJ/kg}
    300000,                  !- Indoor and Outdoor Enthalpy Difference Upper Limit for Minimum Venting Open Factor {deltaJ/kg}
    TLB Occupation Schedule, !- Venting Availability Schedule Name
    ,                        !- Occupant Ventilation Control Name
    PolygonHeight,           !- Equivalent Rectangle Method
    1;                       !- Equivalent Rectangle Aspect Ratio {dimensionless}

AirflowNetwork:MultiZone:Surface,
    P4_W13 (Door),           !- Surface Name
    Doors,                   !- Leakage Component Name
    ,                        !- External Node Name
    0.45,                    !- Window/Door Opening Factor, or Crack Factor {dimensionless}
    ZoneLevel,               !- Ventilation Control Mode
    VN_19,                   !- Ventilation Control Zone Temperature Setpoint Schedule Name
    0.45,                    !- Minimum Venting Open Factor {dimensionless}
    0,                       !- Indoor and Outdoor Temperature Difference Lower Limit For Maximum Venting Open Factor {deltaC}
    5,                       !- Indoor and Outdoor Temperature Difference Upper Limit for Minimum Venting Open Factor {deltaC}
    0,                       !- Indoor and Outdoor Enthalpy Difference Lower Limit For Maximum Venting Open Factor {deltaJ/kg}
    300000,                  !- Indoor and Outdoor Enthalpy Difference Upper Limit for Minimum Venting Open Factor {deltaJ/kg}
    TLB Occupation Schedule, !- Venting Availability Schedule Name
    ,                        !- Occupant Ventilation Control Name
    PolygonHeight,           !- Equivalent Rectangle Method
    1;                       !- Equivalent Rectangle Aspect Ratio {dimensionless}

AirflowNetwork:MultiZone:Surface,
    P4_W14 (WC),             !- Surface Name
    Windows,                 !- Leakage Component Name
    ,                        !- External Node Name
    0.45,                    !- Window/Door Opening Factor, or Crack Factor {dimensionless}
    ZoneLevel,               !- Ventilation Control Mode
    VN_19,                   !- Ventilation Control Zone Temperature Setpoint Schedule Name
    0.45,                    !- Minimum Venting Open Factor {dimensionless}
    0,                       !- Indoor and Outdoor Temperature Difference Lower Limit For Maximum Venting Open Factor {deltaC}
    5,                       !- Indoor and Outdoor Temperature Difference Upper Limit for Minimum Venting Open Factor {deltaC}
    0,                       !- Indoor and Outdoor Enthalpy Difference Lower Limit For Maximum Venting Open Factor {deltaJ/kg}
    300000,                  !- Indoor and Outdoor Enthalpy Difference Upper Limit for Minimum Venting Open Factor {deltaJ/kg}
    TLB Occupation Schedule, !- Venting Availability Schedule Name
    ,                        !- Occupant Ventilation Control Name
    PolygonHeight,           !- Equivalent Rectangle Method
    1;                       !- Equivalent Rectangle Aspect Ratio {dimensionless}

AirflowNetwork:MultiZone:Surface,
    P4_W15 (Kitchen),        !- Surface Name
    Windows,                 !- Leakage Component Name
    ,                        !- External Node Name
    0.45,                    !- Window/Door Opening Factor, or Crack Factor {dimensionless}
    ZoneLevel,               !- Ventilation Control Mode
    VN_19,                   !- Ventilation Control Zone Temperature Setpoint Schedule Name
    0.45,                    !- Minimum Venting Open Factor {dimensionless}
    0,                       !- Indoor and Outdoor Temperature Difference Lower Limit For Maximum Venting Open Factor {deltaC}
    5,                       !- Indoor and Outdoor Temperature Difference Upper Limit for Minimum Venting Open Factor {deltaC}
    0,                       !- Indoor and Outdoor Enthalpy Difference Lower Limit For Maximum Venting Open Factor {deltaJ/kg}
    300000,                  !- Indoor and Outdoor Enthalpy Difference Upper Limit for Minimum Venting Open Factor {deltaJ/kg}
    TLB Occupation Schedule, !- Venting Availability Schedule Name
    ,                        !- Occupant Ventilation Control Name
    PolygonHeight,           !- Equivalent Rectangle Method
    1;                       !- Equivalent Rectangle Aspect Ratio {dimensionless}

AirflowNetwork:MultiZone:Surface,
    P4_W16,                  !- Surface Name
    Windows,                 !- Leakage Component Name
    ,                        !- External Node Name
    0.45,                    !- Window/Door Opening Factor, or Crack Factor {dimensionless}
    ZoneLevel,               !- Ventilation Control Mode
    VN_19,                   !- Ventilation Control Zone Temperature Setpoint Schedule Name
    0.45,                    !- Minimum Venting Open Factor {dimensionless}
    0,                       !- Indoor and Outdoor Temperature Difference Lower Limit For Maximum Venting Open Factor {deltaC}
    5,                       !- Indoor and Outdoor Temperature Difference Upper Limit for Minimum Venting Open Factor {deltaC}
    0,                       !- Indoor and Outdoor Enthalpy Difference Lower Limit For Maximum Venting Open Factor {deltaJ/kg}
    300000,                  !- Indoor and Outdoor Enthalpy Difference Upper Limit for Minimum Venting Open Factor {deltaJ/kg}
    TLB Occupation Schedule, !- Venting Availability Schedule Name
    ,                        !- Occupant Ventilation Control Name
    PolygonHeight,           !- Equivalent Rectangle Method
    1;                       !- Equivalent Rectangle Aspect Ratio {dimensionless}

AirflowNetwork:MultiZone:Surface,
    P4_W17,                  !- Surface Name
    Windows,                 !- Leakage Component Name
    ,                        !- External Node Name
    0.45,                    !- Window/Door Opening Factor, or Crack Factor {dimensionless}
    ZoneLevel,               !- Ventilation Control Mode
    VN_19,                   !- Ventilation Control Zone Temperature Setpoint Schedule Name
    0.45,                    !- Minimum Venting Open Factor {dimensionless}
    0,                       !- Indoor and Outdoor Temperature Difference Lower Limit For Maximum Venting Open Factor {deltaC}
    5,                       !- Indoor and Outdoor Temperature Difference Upper Limit for Minimum Venting Open Factor {deltaC}
    0,                       !- Indoor and Outdoor Enthalpy Difference Lower Limit For Maximum Venting Open Factor {deltaJ/kg}
    300000,                  !- Indoor and Outdoor Enthalpy Difference Upper Limit for Minimum Venting Open Factor {deltaJ/kg}
    TLB Occupation Schedule, !- Venting Availability Schedule Name
    ,                        !- Occupant Ventilation Control Name
    PolygonHeight,           !- Equivalent Rectangle Method
    1;                       !- Equivalent Rectangle Aspect Ratio {dimensionless}

AirflowNetwork:MultiZone:Surface,
    P4_W18 (Door),           !- Surface Name
    Doors,                   !- Leakage Component Name
    ,                        !- External Node Name
    0.45,                    !- Window/Door Opening Factor, or Crack Factor {dimensionless}
    ZoneLevel,               !- Ventilation Control Mode
    VN_19,                   !- Ventilation Control Zone Temperature Setpoint Schedule Name
    0.45,                    !- Minimum Venting Open Factor {dimensionless}
    0,                       !- Indoor and Outdoor Temperature Difference Lower Limit For Maximum Venting Open Factor {deltaC}
    5,                       !- Indoor and Outdoor Temperature Difference Upper Limit for Minimum Venting Open Factor {deltaC}
    0,                       !- Indoor and Outdoor Enthalpy Difference Lower Limit For Maximum Venting Open Factor {deltaJ/kg}
    300000,                  !- Indoor and Outdoor Enthalpy Difference Upper Limit for Minimum Venting Open Factor {deltaJ/kg}
    TLB Occupation Schedule, !- Venting Availability Schedule Name
    ,                        !- Occupant Ventilation Control Name
    PolygonHeight,           !- Equivalent Rectangle Method
    1;                       !- Equivalent Rectangle Aspect Ratio {dimensionless}

AirflowNetwork:MultiZone:Surface,
    P4_W19 (WC),             !- Surface Name
    Windows,                 !- Leakage Component Name
    ,                        !- External Node Name
    0.45,                    !- Window/Door Opening Factor, or Crack Factor {dimensionless}
    ZoneLevel,               !- Ventilation Control Mode
    VN_19,                   !- Ventilation Control Zone Temperature Setpoint Schedule Name
    0.45,                    !- Minimum Venting Open Factor {dimensionless}
    0,                       !- Indoor and Outdoor Temperature Difference Lower Limit For Maximum Venting Open Factor {deltaC}
    5,                       !- Indoor and Outdoor Temperature Difference Upper Limit for Minimum Venting Open Factor {deltaC}
    0,                       !- Indoor and Outdoor Enthalpy Difference Lower Limit For Maximum Venting Open Factor {deltaJ/kg}
    300000,                  !- Indoor and Outdoor Enthalpy Difference Upper Limit for Minimum Venting Open Factor {deltaJ/kg}
    TLB Occupation Schedule, !- Venting Availability Schedule Name
    ,                        !- Occupant Ventilation Control Name
    PolygonHeight,           !- Equivalent Rectangle Method
    1;                       !- Equivalent Rectangle Aspect Ratio {dimensionless}

AirflowNetwork:MultiZone:Surface,
    P4_W20 (Kitchen),        !- Surface Name
    Windows,                 !- Leakage Component Name
    ,                        !- External Node Name
    0.45,                    !- Window/Door Opening Factor, or Crack Factor {dimensionless}
    ZoneLevel,               !- Ventilation Control Mode
    VN_19,                   !- Ventilation Control Zone Temperature Setpoint Schedule Name
    0.45,                    !- Minimum Venting Open Factor {dimensionless}
    0,                       !- Indoor and Outdoor Temperature Difference Lower Limit For Maximum Venting Open Factor {deltaC}
    5,                       !- Indoor and Outdoor Temperature Difference Upper Limit for Minimum Venting Open Factor {deltaC}
    0,                       !- Indoor and Outdoor Enthalpy Difference Lower Limit For Maximum Venting Open Factor {deltaJ/kg}
    300000,                  !- Indoor and Outdoor Enthalpy Difference Upper Limit for Minimum Venting Open Factor {deltaJ/kg}
    TLB Occupation Schedule, !- Venting Availability Schedule Name
    ,                        !- Occupant Ventilation Control Name
    PolygonHeight,           !- Equivalent Rectangle Method
    1;                       !- Equivalent Rectangle Aspect Ratio {dimensionless}

AirflowNetwork:MultiZone:Surface,
    P5_W01,                  !- Surface Name
    Windows,                 !- Leakage Component Name
    ,                        !- External Node Name
    0.45,                    !- Window/Door Opening Factor, or Crack Factor {dimensionless}
    ZoneLevel,               !- Ventilation Control Mode
    VN_19,                   !- Ventilation Control Zone Temperature Setpoint Schedule Name
    0.45,                    !- Minimum Venting Open Factor {dimensionless}
    0,                       !- Indoor and Outdoor Temperature Difference Lower Limit For Maximum Venting Open Factor {deltaC}
    5,                       !- Indoor and Outdoor Temperature Difference Upper Limit for Minimum Venting Open Factor {deltaC}
    0,                       !- Indoor and Outdoor Enthalpy Difference Lower Limit For Maximum Venting Open Factor {deltaJ/kg}
    300000,                  !- Indoor and Outdoor Enthalpy Difference Upper Limit for Minimum Venting Open Factor {deltaJ/kg}
    TLB Occupation Schedule, !- Venting Availability Schedule Name
    ,                        !- Occupant Ventilation Control Name
    PolygonHeight,           !- Equivalent Rectangle Method
    1;                       !- Equivalent Rectangle Aspect Ratio {dimensionless}

AirflowNetwork:MultiZone:Surface,
    P5_W02,                  !- Surface Name
    Windows,                 !- Leakage Component Name
    ,                        !- External Node Name
    0.45,                    !- Window/Door Opening Factor, or Crack Factor {dimensionless}
    ZoneLevel,               !- Ventilation Control Mode
    VN_19,                   !- Ventilation Control Zone Temperature Setpoint Schedule Name
    0.45,                    !- Minimum Venting Open Factor {dimensionless}
    0,                       !- Indoor and Outdoor Temperature Difference Lower Limit For Maximum Venting Open Factor {deltaC}
    5,                       !- Indoor and Outdoor Temperature Difference Upper Limit for Minimum Venting Open Factor {deltaC}
    0,                       !- Indoor and Outdoor Enthalpy Difference Lower Limit For Maximum Venting Open Factor {deltaJ/kg}
    300000,                  !- Indoor and Outdoor Enthalpy Difference Upper Limit for Minimum Venting Open Factor {deltaJ/kg}
    TLB Occupation Schedule, !- Venting Availability Schedule Name
    ,                        !- Occupant Ventilation Control Name
    PolygonHeight,           !- Equivalent Rectangle Method
    1;                       !- Equivalent Rectangle Aspect Ratio {dimensionless}

AirflowNetwork:MultiZone:Surface,
    P5_W03 (Door),           !- Surface Name
    Doors,                   !- Leakage Component Name
    ,                        !- External Node Name
    0.45,                    !- Window/Door Opening Factor, or Crack Factor {dimensionless}
    ZoneLevel,               !- Ventilation Control Mode
    VN_19,                   !- Ventilation Control Zone Temperature Setpoint Schedule Name
    0.45,                    !- Minimum Venting Open Factor {dimensionless}
    0,                       !- Indoor and Outdoor Temperature Difference Lower Limit For Maximum Venting Open Factor {deltaC}
    5,                       !- Indoor and Outdoor Temperature Difference Upper Limit for Minimum Venting Open Factor {deltaC}
    0,                       !- Indoor and Outdoor Enthalpy Difference Lower Limit For Maximum Venting Open Factor {deltaJ/kg}
    300000,                  !- Indoor and Outdoor Enthalpy Difference Upper Limit for Minimum Venting Open Factor {deltaJ/kg}
    TLB Occupation Schedule, !- Venting Availability Schedule Name
    ,                        !- Occupant Ventilation Control Name
    PolygonHeight,           !- Equivalent Rectangle Method
    1;                       !- Equivalent Rectangle Aspect Ratio {dimensionless}

AirflowNetwork:MultiZone:Surface,
    P5_W04 (WC),             !- Surface Name
    Windows,                 !- Leakage Component Name
    ,                        !- External Node Name
    0.45,                    !- Window/Door Opening Factor, or Crack Factor {dimensionless}
    ZoneLevel,               !- Ventilation Control Mode
    VN_19,                   !- Ventilation Control Zone Temperature Setpoint Schedule Name
    0.45,                    !- Minimum Venting Open Factor {dimensionless}
    0,                       !- Indoor and Outdoor Temperature Difference Lower Limit For Maximum Venting Open Factor {deltaC}
    5,                       !- Indoor and Outdoor Temperature Difference Upper Limit for Minimum Venting Open Factor {deltaC}
    0,                       !- Indoor and Outdoor Enthalpy Difference Lower Limit For Maximum Venting Open Factor {deltaJ/kg}
    300000,                  !- Indoor and Outdoor Enthalpy Difference Upper Limit for Minimum Venting Open Factor {deltaJ/kg}
    TLB Occupation Schedule, !- Venting Availability Schedule Name
    ,                        !- Occupant Ventilation Control Name
    PolygonHeight,           !- Equivalent Rectangle Method
    1;                       !- Equivalent Rectangle Aspect Ratio {dimensionless}

AirflowNetwork:MultiZone:Surface,
    P5_W05 (Kitchen),        !- Surface Name
    Doors,                   !- Leakage Component Name
    ,                        !- External Node Name
    0.45,                    !- Window/Door Opening Factor, or Crack Factor {dimensionless}
    ZoneLevel,               !- Ventilation Control Mode
    VN_19,                   !- Ventilation Control Zone Temperature Setpoint Schedule Name
    0.45,                    !- Minimum Venting Open Factor {dimensionless}
    0,                       !- Indoor and Outdoor Temperature Difference Lower Limit For Maximum Venting Open Factor {deltaC}
    5,                       !- Indoor and Outdoor Temperature Difference Upper Limit for Minimum Venting Open Factor {deltaC}
    0,                       !- Indoor and Outdoor Enthalpy Difference Lower Limit For Maximum Venting Open Factor {deltaJ/kg}
    300000,                  !- Indoor and Outdoor Enthalpy Difference Upper Limit for Minimum Venting Open Factor {deltaJ/kg}
    TLB Occupation Schedule, !- Venting Availability Schedule Name
    ,                        !- Occupant Ventilation Control Name
    PolygonHeight,           !- Equivalent Rectangle Method
    1;                       !- Equivalent Rectangle Aspect Ratio {dimensionless}

AirflowNetwork:MultiZone:Surface,
    P5_W06,                  !- Surface Name
    Windows,                 !- Leakage Component Name
    ,                        !- External Node Name
    0.45,                    !- Window/Door Opening Factor, or Crack Factor {dimensionless}
    ZoneLevel,               !- Ventilation Control Mode
    VN_19,                   !- Ventilation Control Zone Temperature Setpoint Schedule Name
    0.45,                    !- Minimum Venting Open Factor {dimensionless}
    0,                       !- Indoor and Outdoor Temperature Difference Lower Limit For Maximum Venting Open Factor {deltaC}
    5,                       !- Indoor and Outdoor Temperature Difference Upper Limit for Minimum Venting Open Factor {deltaC}
    0,                       !- Indoor and Outdoor Enthalpy Difference Lower Limit For Maximum Venting Open Factor {deltaJ/kg}
    300000,                  !- Indoor and Outdoor Enthalpy Difference Upper Limit for Minimum Venting Open Factor {deltaJ/kg}
    TLB Occupation Schedule, !- Venting Availability Schedule Name
    ,                        !- Occupant Ventilation Control Name
    PolygonHeight,           !- Equivalent Rectangle Method
    1;                       !- Equivalent Rectangle Aspect Ratio {dimensionless}

AirflowNetwork:MultiZone:Surface,
    P5_W07,                  !- Surface Name
    Windows,                 !- Leakage Component Name
    ,                        !- External Node Name
    0.45,                    !- Window/Door Opening Factor, or Crack Factor {dimensionless}
    ZoneLevel,               !- Ventilation Control Mode
    VN_19,                   !- Ventilation Control Zone Temperature Setpoint Schedule Name
    0.45,                    !- Minimum Venting Open Factor {dimensionless}
    0,                       !- Indoor and Outdoor Temperature Difference Lower Limit For Maximum Venting Open Factor {deltaC}
    5,                       !- Indoor and Outdoor Temperature Difference Upper Limit for Minimum Venting Open Factor {deltaC}
    0,                       !- Indoor and Outdoor Enthalpy Difference Lower Limit For Maximum Venting Open Factor {deltaJ/kg}
    300000,                  !- Indoor and Outdoor Enthalpy Difference Upper Limit for Minimum Venting Open Factor {deltaJ/kg}
    TLB Occupation Schedule, !- Venting Availability Schedule Name
    ,                        !- Occupant Ventilation Control Name
    PolygonHeight,           !- Equivalent Rectangle Method
    1;                       !- Equivalent Rectangle Aspect Ratio {dimensionless}

AirflowNetwork:MultiZone:Surface,
    P5_W08 (Door),           !- Surface Name
    Doors,                   !- Leakage Component Name
    ,                        !- External Node Name
    0.45,                    !- Window/Door Opening Factor, or Crack Factor {dimensionless}
    ZoneLevel,               !- Ventilation Control Mode
    VN_19,                   !- Ventilation Control Zone Temperature Setpoint Schedule Name
    0.45,                    !- Minimum Venting Open Factor {dimensionless}
    0,                       !- Indoor and Outdoor Temperature Difference Lower Limit For Maximum Venting Open Factor {deltaC}
    5,                       !- Indoor and Outdoor Temperature Difference Upper Limit for Minimum Venting Open Factor {deltaC}
    0,                       !- Indoor and Outdoor Enthalpy Difference Lower Limit For Maximum Venting Open Factor {deltaJ/kg}
    300000,                  !- Indoor and Outdoor Enthalpy Difference Upper Limit for Minimum Venting Open Factor {deltaJ/kg}
    TLB Occupation Schedule, !- Venting Availability Schedule Name
    ,                        !- Occupant Ventilation Control Name
    PolygonHeight,           !- Equivalent Rectangle Method
    1;                       !- Equivalent Rectangle Aspect Ratio {dimensionless}

AirflowNetwork:MultiZone:Surface,
    P5_W09 (WC),             !- Surface Name
    Windows,                 !- Leakage Component Name
    ,                        !- External Node Name
    0.45,                    !- Window/Door Opening Factor, or Crack Factor {dimensionless}
    ZoneLevel,               !- Ventilation Control Mode
    VN_19,                   !- Ventilation Control Zone Temperature Setpoint Schedule Name
    0.45,                    !- Minimum Venting Open Factor {dimensionless}
    0,                       !- Indoor and Outdoor Temperature Difference Lower Limit For Maximum Venting Open Factor {deltaC}
    5,                       !- Indoor and Outdoor Temperature Difference Upper Limit for Minimum Venting Open Factor {deltaC}
    0,                       !- Indoor and Outdoor Enthalpy Difference Lower Limit For Maximum Venting Open Factor {deltaJ/kg}
    300000,                  !- Indoor and Outdoor Enthalpy Difference Upper Limit for Minimum Venting Open Factor {deltaJ/kg}
    TLB Occupation Schedule, !- Venting Availability Schedule Name
    ,                        !- Occupant Ventilation Control Name
    PolygonHeight,           !- Equivalent Rectangle Method
    1;                       !- Equivalent Rectangle Aspect Ratio {dimensionless}

AirflowNetwork:MultiZone:Surface,
    P5_W10 (Kitchen),        !- Surface Name
    Windows,                 !- Leakage Component Name
    ,                        !- External Node Name
    0.45,                    !- Window/Door Opening Factor, or Crack Factor {dimensionless}
    ZoneLevel,               !- Ventilation Control Mode
    VN_19,                   !- Ventilation Control Zone Temperature Setpoint Schedule Name
    0.45,                    !- Minimum Venting Open Factor {dimensionless}
    0,                       !- Indoor and Outdoor Temperature Difference Lower Limit For Maximum Venting Open Factor {deltaC}
    5,                       !- Indoor and Outdoor Temperature Difference Upper Limit for Minimum Venting Open Factor {deltaC}
    0,                       !- Indoor and Outdoor Enthalpy Difference Lower Limit For Maximum Venting Open Factor {deltaJ/kg}
    300000,                  !- Indoor and Outdoor Enthalpy Difference Upper Limit for Minimum Venting Open Factor {deltaJ/kg}
    TLB Occupation Schedule, !- Venting Availability Schedule Name
    ,                        !- Occupant Ventilation Control Name
    PolygonHeight,           !- Equivalent Rectangle Method
    1;                       !- Equivalent Rectangle Aspect Ratio {dimensionless}

AirflowNetwork:MultiZone:Surface,
    P5_W11,                  !- Surface Name
    Windows,                 !- Leakage Component Name
    ,                        !- External Node Name
    0.45,                    !- Window/Door Opening Factor, or Crack Factor {dimensionless}
    ZoneLevel,               !- Ventilation Control Mode
    VN_19,                   !- Ventilation Control Zone Temperature Setpoint Schedule Name
    0.45,                    !- Minimum Venting Open Factor {dimensionless}
    0,                       !- Indoor and Outdoor Temperature Difference Lower Limit For Maximum Venting Open Factor {deltaC}
    5,                       !- Indoor and Outdoor Temperature Difference Upper Limit for Minimum Venting Open Factor {deltaC}
    0,                       !- Indoor and Outdoor Enthalpy Difference Lower Limit For Maximum Venting Open Factor {deltaJ/kg}
    300000,                  !- Indoor and Outdoor Enthalpy Difference Upper Limit for Minimum Venting Open Factor {deltaJ/kg}
    TLB Occupation Schedule, !- Venting Availability Schedule Name
    ,                        !- Occupant Ventilation Control Name
    PolygonHeight,           !- Equivalent Rectangle Method
    1;                       !- Equivalent Rectangle Aspect Ratio {dimensionless}

AirflowNetwork:MultiZone:Surface,
    P5_W12,                  !- Surface Name
    Windows,                 !- Leakage Component Name
    ,                        !- External Node Name
    0.45,                    !- Window/Door Opening Factor, or Crack Factor {dimensionless}
    ZoneLevel,               !- Ventilation Control Mode
    VN_19,                   !- Ventilation Control Zone Temperature Setpoint Schedule Name
    0.45,                    !- Minimum Venting Open Factor {dimensionless}
    0,                       !- Indoor and Outdoor Temperature Difference Lower Limit For Maximum Venting Open Factor {deltaC}
    5,                       !- Indoor and Outdoor Temperature Difference Upper Limit for Minimum Venting Open Factor {deltaC}
    0,                       !- Indoor and Outdoor Enthalpy Difference Lower Limit For Maximum Venting Open Factor {deltaJ/kg}
    300000,                  !- Indoor and Outdoor Enthalpy Difference Upper Limit for Minimum Venting Open Factor {deltaJ/kg}
    TLB Occupation Schedule, !- Venting Availability Schedule Name
    ,                        !- Occupant Ventilation Control Name
    PolygonHeight,           !- Equivalent Rectangle Method
    1;                       !- Equivalent Rectangle Aspect Ratio {dimensionless}

AirflowNetwork:MultiZone:Surface,
    P5_W13 (Door),           !- Surface Name
    Doors,                   !- Leakage Component Name
    ,                        !- External Node Name
    0.45,                    !- Window/Door Opening Factor, or Crack Factor {dimensionless}
    ZoneLevel,               !- Ventilation Control Mode
    VN_19,                   !- Ventilation Control Zone Temperature Setpoint Schedule Name
    0.45,                    !- Minimum Venting Open Factor {dimensionless}
    0,                       !- Indoor and Outdoor Temperature Difference Lower Limit For Maximum Venting Open Factor {deltaC}
    5,                       !- Indoor and Outdoor Temperature Difference Upper Limit for Minimum Venting Open Factor {deltaC}
    0,                       !- Indoor and Outdoor Enthalpy Difference Lower Limit For Maximum Venting Open Factor {deltaJ/kg}
    300000,                  !- Indoor and Outdoor Enthalpy Difference Upper Limit for Minimum Venting Open Factor {deltaJ/kg}
    TLB Occupation Schedule, !- Venting Availability Schedule Name
    ,                        !- Occupant Ventilation Control Name
    PolygonHeight,           !- Equivalent Rectangle Method
    1;                       !- Equivalent Rectangle Aspect Ratio {dimensionless}

AirflowNetwork:MultiZone:Surface,
    P5_W14 (WC),             !- Surface Name
    Windows,                 !- Leakage Component Name
    ,                        !- External Node Name
    0.45,                    !- Window/Door Opening Factor, or Crack Factor {dimensionless}
    ZoneLevel,               !- Ventilation Control Mode
    VN_19,                   !- Ventilation Control Zone Temperature Setpoint Schedule Name
    0.45,                    !- Minimum Venting Open Factor {dimensionless}
    0,                       !- Indoor and Outdoor Temperature Difference Lower Limit For Maximum Venting Open Factor {deltaC}
    5,                       !- Indoor and Outdoor Temperature Difference Upper Limit for Minimum Venting Open Factor {deltaC}
    0,                       !- Indoor and Outdoor Enthalpy Difference Lower Limit For Maximum Venting Open Factor {deltaJ/kg}
    300000,                  !- Indoor and Outdoor Enthalpy Difference Upper Limit for Minimum Venting Open Factor {deltaJ/kg}
    TLB Occupation Schedule, !- Venting Availability Schedule Name
    ,                        !- Occupant Ventilation Control Name
    PolygonHeight,           !- Equivalent Rectangle Method
    1;                       !- Equivalent Rectangle Aspect Ratio {dimensionless}

AirflowNetwork:MultiZone:Surface,
    P5_W15 (Kitchen),        !- Surface Name
    Windows,                 !- Leakage Component Name
    ,                        !- External Node Name
    0.45,                    !- Window/Door Opening Factor, or Crack Factor {dimensionless}
    ZoneLevel,               !- Ventilation Control Mode
    VN_19,                   !- Ventilation Control Zone Temperature Setpoint Schedule Name
    0.45,                    !- Minimum Venting Open Factor {dimensionless}
    0,                       !- Indoor and Outdoor Temperature Difference Lower Limit For Maximum Venting Open Factor {deltaC}
    5,                       !- Indoor and Outdoor Temperature Difference Upper Limit for Minimum Venting Open Factor {deltaC}
    0,                       !- Indoor and Outdoor Enthalpy Difference Lower Limit For Maximum Venting Open Factor {deltaJ/kg}
    300000,                  !- Indoor and Outdoor Enthalpy Difference Upper Limit for Minimum Venting Open Factor {deltaJ/kg}
    TLB Occupation Schedule, !- Venting Availability Schedule Name
    ,                        !- Occupant Ventilation Control Name
    PolygonHeight,           !- Equivalent Rectangle Method
    1;                       !- Equivalent Rectangle Aspect Ratio {dimensionless}

AirflowNetwork:MultiZone:Surface,
    P5_W16,                  !- Surface Name
    Windows,                 !- Leakage Component Name
    ,                        !- External Node Name
    0.45,                    !- Window/Door Opening Factor, or Crack Factor {dimensionless}
    ZoneLevel,               !- Ventilation Control Mode
    VN_19,                   !- Ventilation Control Zone Temperature Setpoint Schedule Name
    0.45,                    !- Minimum Venting Open Factor {dimensionless}
    0,                       !- Indoor and Outdoor Temperature Difference Lower Limit For Maximum Venting Open Factor {deltaC}
    5,                       !- Indoor and Outdoor Temperature Difference Upper Limit for Minimum Venting Open Factor {deltaC}
    0,                       !- Indoor and Outdoor Enthalpy Difference Lower Limit For Maximum Venting Open Factor {deltaJ/kg}
    300000,                  !- Indoor and Outdoor Enthalpy Difference Upper Limit for Minimum Venting Open Factor {deltaJ/kg}
    TLB Occupation Schedule, !- Venting Availability Schedule Name
    ,                        !- Occupant Ventilation Control Name
    PolygonHeight,           !- Equivalent Rectangle Method
    1;                       !- Equivalent Rectangle Aspect Ratio {dimensionless}

AirflowNetwork:MultiZone:Surface,
    P5_W17,                  !- Surface Name
    Windows,                 !- Leakage Component Name
    ,                        !- External Node Name
    0.45,                    !- Window/Door Opening Factor, or Crack Factor {dimensionless}
    ZoneLevel,               !- Ventilation Control Mode
    VN_19,                   !- Ventilation Control Zone Temperature Setpoint Schedule Name
    0.45,                    !- Minimum Venting Open Factor {dimensionless}
    0,                       !- Indoor and Outdoor Temperature Difference Lower Limit For Maximum Venting Open Factor {deltaC}
    5,                       !- Indoor and Outdoor Temperature Difference Upper Limit for Minimum Venting Open Factor {deltaC}
    0,                       !- Indoor and Outdoor Enthalpy Difference Lower Limit For Maximum Venting Open Factor {deltaJ/kg}
    300000,                  !- Indoor and Outdoor Enthalpy Difference Upper Limit for Minimum Venting Open Factor {deltaJ/kg}
    TLB Occupation Schedule, !- Venting Availability Schedule Name
    ,                        !- Occupant Ventilation Control Name
    PolygonHeight,           !- Equivalent Rectangle Method
    1;                       !- Equivalent Rectangle Aspect Ratio {dimensionless}

AirflowNetwork:MultiZone:Surface,
    P5_W18 (Door),           !- Surface Name
    Doors,                   !- Leakage Component Name
    ,                        !- External Node Name
    0.45,                    !- Window/Door Opening Factor, or Crack Factor {dimensionless}
    ZoneLevel,               !- Ventilation Control Mode
    VN_19,                   !- Ventilation Control Zone Temperature Setpoint Schedule Name
    0.45,                    !- Minimum Venting Open Factor {dimensionless}
    0,                       !- Indoor and Outdoor Temperature Difference Lower Limit For Maximum Venting Open Factor {deltaC}
    5,                       !- Indoor and Outdoor Temperature Difference Upper Limit for Minimum Venting Open Factor {deltaC}
    0,                       !- Indoor and Outdoor Enthalpy Difference Lower Limit For Maximum Venting Open Factor {deltaJ/kg}
    300000,                  !- Indoor and Outdoor Enthalpy Difference Upper Limit for Minimum Venting Open Factor {deltaJ/kg}
    TLB Occupation Schedule, !- Venting Availability Schedule Name
    ,                        !- Occupant Ventilation Control Name
    PolygonHeight,           !- Equivalent Rectangle Method
    1;                       !- Equivalent Rectangle Aspect Ratio {dimensionless}

AirflowNetwork:MultiZone:Surface,
    P5_W19 (WC),             !- Surface Name
    Windows,                 !- Leakage Component Name
    ,                        !- External Node Name
    0.45,                    !- Window/Door Opening Factor, or Crack Factor {dimensionless}
    ZoneLevel,               !- Ventilation Control Mode
    VN_19,                   !- Ventilation Control Zone Temperature Setpoint Schedule Name
    0.45,                    !- Minimum Venting Open Factor {dimensionless}
    0,                       !- Indoor and Outdoor Temperature Difference Lower Limit For Maximum Venting Open Factor {deltaC}
    5,                       !- Indoor and Outdoor Temperature Difference Upper Limit for Minimum Venting Open Factor {deltaC}
    0,                       !- Indoor and Outdoor Enthalpy Difference Lower Limit For Maximum Venting Open Factor {deltaJ/kg}
    300000,                  !- Indoor and Outdoor Enthalpy Difference Upper Limit for Minimum Venting Open Factor {deltaJ/kg}
    TLB Occupation Schedule, !- Venting Availability Schedule Name
    ,                        !- Occupant Ventilation Control Name
    PolygonHeight,           !- Equivalent Rectangle Method
    1;                       !- Equivalent Rectangle Aspect Ratio {dimensionless}

AirflowNetwork:MultiZone:Surface,
    P5_W20 (Kitchen),        !- Surface Name
    Windows,                 !- Leakage Component Name
    ,                        !- External Node Name
    0.45,                    !- Window/Door Opening Factor, or Crack Factor {dimensionless}
    ZoneLevel,               !- Ventilation Control Mode
    VN_19,                   !- Ventilation Control Zone Temperature Setpoint Schedule Name
    0.45,                    !- Minimum Venting Open Factor {dimensionless}
    0,                       !- Indoor and Outdoor Temperature Difference Lower Limit For Maximum Venting Open Factor {deltaC}
    5,                       !- Indoor and Outdoor Temperature Difference Upper Limit for Minimum Venting Open Factor {deltaC}
    0,                       !- Indoor and Outdoor Enthalpy Difference Lower Limit For Maximum Venting Open Factor {deltaJ/kg}
    300000,                  !- Indoor and Outdoor Enthalpy Difference Upper Limit for Minimum Venting Open Factor {deltaJ/kg}
    TLB Occupation Schedule, !- Venting Availability Schedule Name
    ,                        !- Occupant Ventilation Control Name
    PolygonHeight,           !- Equivalent Rectangle Method
    1;                       !- Equivalent Rectangle Aspect Ratio {dimensionless}


!-   ===========  ALL OBJECTS IN CLASS: AIRFLOWNETWORK:MULTIZONE:COMPONENT:DETAILEDOPENING ===========

AirflowNetwork:MultiZone:Component:DetailedOpening,
    Doors,                   !- Name
    0.0024,                  !- Air Mass Flow Coefficient When Opening is Closed {kg/s-m}
    0.59,                    !- Air Mass Flow Exponent When Opening is Closed {dimensionless}
    NonPivoted,              !- Type of Rectangular Large Vertical Opening (LVO)
    0,                       !- Extra Crack Length or Height of Pivoting Axis {m}
    2,                       !- Number of Sets of Opening Factor Data
    0,                       !- Opening Factor 1 {dimensionless}
    0.001,                   !- Discharge Coefficient for Opening Factor 1 {dimensionless}
    0,                       !- Width Factor for Opening Factor 1 {dimensionless}
    1,                       !- Height Factor for Opening Factor 1 {dimensionless}
    0,                       !- Start Height Factor for Opening Factor 1 {dimensionless}
    0.6,                     !- Opening Factor 2 {dimensionless}
    1,                       !- Discharge Coefficient for Opening Factor 2 {dimensionless}
    1,                       !- Width Factor for Opening Factor 2 {dimensionless}
    1,                       !- Height Factor for Opening Factor 2 {dimensionless}
    0;                       !- Start Height Factor for Opening Factor 2 {dimensionless}

AirflowNetwork:MultiZone:Component:DetailedOpening,
    Windows,                 !- Name
    0.00063,                 !- Air Mass Flow Coefficient When Opening is Closed {kg/s-m}
    0.63,                    !- Air Mass Flow Exponent When Opening is Closed {dimensionless}
    NonPivoted,              !- Type of Rectangular Large Vertical Opening (LVO)
    0.3,                     !- Extra Crack Length or Height of Pivoting Axis {m}
    2,                       !- Number of Sets of Opening Factor Data
    0,                       !- Opening Factor 1 {dimensionless}
    0.001,                   !- Discharge Coefficient for Opening Factor 1 {dimensionless}
    0,                       !- Width Factor for Opening Factor 1 {dimensionless}
    1,                       !- Height Factor for Opening Factor 1 {dimensionless}
    0,                       !- Start Height Factor for Opening Factor 1 {dimensionless}
    0.6,                     !- Opening Factor 2 {dimensionless}
    0.9,                     !- Discharge Coefficient for Opening Factor 2 {dimensionless}
    1,                       !- Width Factor for Opening Factor 2 {dimensionless}
    1,                       !- Height Factor for Opening Factor 2 {dimensionless}
    0;                       !- Start Height Factor for Opening Factor 2 {dimensionless}


!-   ===========  ALL OBJECTS IN CLASS: HVACTEMPLATE:THERMOSTAT ===========

HVACTemplate:Thermostat,
    Thermostat,              !- Name
    ,                        !- Heating Setpoint Schedule Name
    21,                      !- Constant Heating Setpoint {C}
    ,                        !- Cooling Setpoint Schedule Name
    23;                      !- Constant Cooling Setpoint {C}


!-   ===========  ALL OBJECTS IN CLASS: HVACTEMPLATE:ZONE:IDEALLOADSAIRSYSTEM ===========

HVACTemplate:Zone:IdealLoadsAirSystem,
    APTO01_P1,               !- Zone Name
    Thermostat,              !- Template Thermostat Name
    TLB Occupation Schedule, !- System Availability Schedule Name
    30,                      !- Maximum Heating Supply Air Temperature {C}
    13,                      !- Minimum Cooling Supply Air Temperature {C}
    0.0156,                  !- Maximum Heating Supply Air Humidity Ratio {kgWater/kgDryAir}
    0.0077,                  !- Minimum Cooling Supply Air Humidity Ratio {kgWater/kgDryAir}
    NoLimit,                 !- Heating Limit
    ,                        !- Maximum Heating Air Flow Rate {m3/s}
    ,                        !- Maximum Sensible Heating Capacity {W}
    NoLimit,                 !- Cooling Limit
    ,                        !- Maximum Cooling Air Flow Rate {m3/s}
    ,                        !- Maximum Total Cooling Capacity {W}
    ,                        !- Heating Availability Schedule Name
    ,                        !- Cooling Availability Schedule Name
    ConstantSensibleHeatRatio,  !- Dehumidification Control Type
    0.7,                     !- Cooling Sensible Heat Ratio {dimensionless}
    60,                      !- Dehumidification Setpoint {percent}
    None,                    !- Humidification Control Type
    30,                      !- Humidification Setpoint {percent}
    None,                    !- Outdoor Air Method
    0.00944,                 !- Outdoor Air Flow Rate per Person {m3/s}
    ,                        !- Outdoor Air Flow Rate per Zone Floor Area {m3/s-m2}
    ,                        !- Outdoor Air Flow Rate per Zone {m3/s}
    ,                        !- Design Specification Outdoor Air Object Name
    None,                    !- Demand Controlled Ventilation Type
    NoEconomizer,            !- Outdoor Air Economizer Type
    None,                    !- Heat Recovery Type
    0.7,                     !- Sensible Heat Recovery Effectiveness {dimensionless}
    0.65;                    !- Latent Heat Recovery Effectiveness {dimensionless}

HVACTemplate:Zone:IdealLoadsAirSystem,
    APTO01_P2,               !- Zone Name
    Thermostat,              !- Template Thermostat Name
    TLB Occupation Schedule, !- System Availability Schedule Name
    30,                      !- Maximum Heating Supply Air Temperature {C}
    13,                      !- Minimum Cooling Supply Air Temperature {C}
    0.0156,                  !- Maximum Heating Supply Air Humidity Ratio {kgWater/kgDryAir}
    0.0077,                  !- Minimum Cooling Supply Air Humidity Ratio {kgWater/kgDryAir}
    NoLimit,                 !- Heating Limit
    ,                        !- Maximum Heating Air Flow Rate {m3/s}
    ,                        !- Maximum Sensible Heating Capacity {W}
    NoLimit,                 !- Cooling Limit
    ,                        !- Maximum Cooling Air Flow Rate {m3/s}
    ,                        !- Maximum Total Cooling Capacity {W}
    ,                        !- Heating Availability Schedule Name
    ,                        !- Cooling Availability Schedule Name
    ConstantSensibleHeatRatio,  !- Dehumidification Control Type
    0.7,                     !- Cooling Sensible Heat Ratio {dimensionless}
    60,                      !- Dehumidification Setpoint {percent}
    None,                    !- Humidification Control Type
    30,                      !- Humidification Setpoint {percent}
    None,                    !- Outdoor Air Method
    0.00944,                 !- Outdoor Air Flow Rate per Person {m3/s}
    ,                        !- Outdoor Air Flow Rate per Zone Floor Area {m3/s-m2}
    ,                        !- Outdoor Air Flow Rate per Zone {m3/s}
    ,                        !- Design Specification Outdoor Air Object Name
    None,                    !- Demand Controlled Ventilation Type
    NoEconomizer,            !- Outdoor Air Economizer Type
    None,                    !- Heat Recovery Type
    0.7,                     !- Sensible Heat Recovery Effectiveness {dimensionless}
    0.65;                    !- Latent Heat Recovery Effectiveness {dimensionless}

HVACTemplate:Zone:IdealLoadsAirSystem,
    APTO01_P3,               !- Zone Name
    Thermostat,              !- Template Thermostat Name
    TLB Occupation Schedule, !- System Availability Schedule Name
    30,                      !- Maximum Heating Supply Air Temperature {C}
    13,                      !- Minimum Cooling Supply Air Temperature {C}
    0.0156,                  !- Maximum Heating Supply Air Humidity Ratio {kgWater/kgDryAir}
    0.0077,                  !- Minimum Cooling Supply Air Humidity Ratio {kgWater/kgDryAir}
    NoLimit,                 !- Heating Limit
    ,                        !- Maximum Heating Air Flow Rate {m3/s}
    ,                        !- Maximum Sensible Heating Capacity {W}
    NoLimit,                 !- Cooling Limit
    ,                        !- Maximum Cooling Air Flow Rate {m3/s}
    ,                        !- Maximum Total Cooling Capacity {W}
    ,                        !- Heating Availability Schedule Name
    ,                        !- Cooling Availability Schedule Name
    ConstantSensibleHeatRatio,  !- Dehumidification Control Type
    0.7,                     !- Cooling Sensible Heat Ratio {dimensionless}
    60,                      !- Dehumidification Setpoint {percent}
    None,                    !- Humidification Control Type
    30,                      !- Humidification Setpoint {percent}
    None,                    !- Outdoor Air Method
    0.00944,                 !- Outdoor Air Flow Rate per Person {m3/s}
    ,                        !- Outdoor Air Flow Rate per Zone Floor Area {m3/s-m2}
    ,                        !- Outdoor Air Flow Rate per Zone {m3/s}
    ,                        !- Design Specification Outdoor Air Object Name
    None,                    !- Demand Controlled Ventilation Type
    NoEconomizer,            !- Outdoor Air Economizer Type
    None,                    !- Heat Recovery Type
    0.7,                     !- Sensible Heat Recovery Effectiveness {dimensionless}
    0.65;                    !- Latent Heat Recovery Effectiveness {dimensionless}

HVACTemplate:Zone:IdealLoadsAirSystem,
    APTO01_P4,               !- Zone Name
    Thermostat,              !- Template Thermostat Name
    TLB Occupation Schedule, !- System Availability Schedule Name
    30,                      !- Maximum Heating Supply Air Temperature {C}
    13,                      !- Minimum Cooling Supply Air Temperature {C}
    0.0156,                  !- Maximum Heating Supply Air Humidity Ratio {kgWater/kgDryAir}
    0.0077,                  !- Minimum Cooling Supply Air Humidity Ratio {kgWater/kgDryAir}
    NoLimit,                 !- Heating Limit
    ,                        !- Maximum Heating Air Flow Rate {m3/s}
    ,                        !- Maximum Sensible Heating Capacity {W}
    NoLimit,                 !- Cooling Limit
    ,                        !- Maximum Cooling Air Flow Rate {m3/s}
    ,                        !- Maximum Total Cooling Capacity {W}
    ,                        !- Heating Availability Schedule Name
    ,                        !- Cooling Availability Schedule Name
    ConstantSensibleHeatRatio,  !- Dehumidification Control Type
    0.7,                     !- Cooling Sensible Heat Ratio {dimensionless}
    60,                      !- Dehumidification Setpoint {percent}
    None,                    !- Humidification Control Type
    30,                      !- Humidification Setpoint {percent}
    None,                    !- Outdoor Air Method
    0.00944,                 !- Outdoor Air Flow Rate per Person {m3/s}
    ,                        !- Outdoor Air Flow Rate per Zone Floor Area {m3/s-m2}
    ,                        !- Outdoor Air Flow Rate per Zone {m3/s}
    ,                        !- Design Specification Outdoor Air Object Name
    None,                    !- Demand Controlled Ventilation Type
    NoEconomizer,            !- Outdoor Air Economizer Type
    None,                    !- Heat Recovery Type
    0.7,                     !- Sensible Heat Recovery Effectiveness {dimensionless}
    0.65;                    !- Latent Heat Recovery Effectiveness {dimensionless}

HVACTemplate:Zone:IdealLoadsAirSystem,
    APTO01_P5,               !- Zone Name
    Thermostat,              !- Template Thermostat Name
    TLB Occupation Schedule, !- System Availability Schedule Name
    30,                      !- Maximum Heating Supply Air Temperature {C}
    13,                      !- Minimum Cooling Supply Air Temperature {C}
    0.0156,                  !- Maximum Heating Supply Air Humidity Ratio {kgWater/kgDryAir}
    0.0077,                  !- Minimum Cooling Supply Air Humidity Ratio {kgWater/kgDryAir}
    NoLimit,                 !- Heating Limit
    ,                        !- Maximum Heating Air Flow Rate {m3/s}
    ,                        !- Maximum Sensible Heating Capacity {W}
    NoLimit,                 !- Cooling Limit
    ,                        !- Maximum Cooling Air Flow Rate {m3/s}
    ,                        !- Maximum Total Cooling Capacity {W}
    ,                        !- Heating Availability Schedule Name
    ,                        !- Cooling Availability Schedule Name
    ConstantSensibleHeatRatio,  !- Dehumidification Control Type
    0.7,                     !- Cooling Sensible Heat Ratio {dimensionless}
    60,                      !- Dehumidification Setpoint {percent}
    None,                    !- Humidification Control Type
    30,                      !- Humidification Setpoint {percent}
    None,                    !- Outdoor Air Method
    0.00944,                 !- Outdoor Air Flow Rate per Person {m3/s}
    ,                        !- Outdoor Air Flow Rate per Zone Floor Area {m3/s-m2}
    ,                        !- Outdoor Air Flow Rate per Zone {m3/s}
    ,                        !- Design Specification Outdoor Air Object Name
    None,                    !- Demand Controlled Ventilation Type
    NoEconomizer,            !- Outdoor Air Economizer Type
    None,                    !- Heat Recovery Type
    0.7,                     !- Sensible Heat Recovery Effectiveness {dimensionless}
    0.65;                    !- Latent Heat Recovery Effectiveness {dimensionless}

HVACTemplate:Zone:IdealLoadsAirSystem,
    APTO02_P1,               !- Zone Name
    Thermostat,              !- Template Thermostat Name
    TLB Occupation Schedule, !- System Availability Schedule Name
    30,                      !- Maximum Heating Supply Air Temperature {C}
    13,                      !- Minimum Cooling Supply Air Temperature {C}
    0.0156,                  !- Maximum Heating Supply Air Humidity Ratio {kgWater/kgDryAir}
    0.0077,                  !- Minimum Cooling Supply Air Humidity Ratio {kgWater/kgDryAir}
    NoLimit,                 !- Heating Limit
    ,                        !- Maximum Heating Air Flow Rate {m3/s}
    ,                        !- Maximum Sensible Heating Capacity {W}
    NoLimit,                 !- Cooling Limit
    ,                        !- Maximum Cooling Air Flow Rate {m3/s}
    ,                        !- Maximum Total Cooling Capacity {W}
    ,                        !- Heating Availability Schedule Name
    ,                        !- Cooling Availability Schedule Name
    ConstantSensibleHeatRatio,  !- Dehumidification Control Type
    0.7,                     !- Cooling Sensible Heat Ratio {dimensionless}
    60,                      !- Dehumidification Setpoint {percent}
    None,                    !- Humidification Control Type
    30,                      !- Humidification Setpoint {percent}
    None,                    !- Outdoor Air Method
    0.00944,                 !- Outdoor Air Flow Rate per Person {m3/s}
    ,                        !- Outdoor Air Flow Rate per Zone Floor Area {m3/s-m2}
    ,                        !- Outdoor Air Flow Rate per Zone {m3/s}
    ,                        !- Design Specification Outdoor Air Object Name
    None,                    !- Demand Controlled Ventilation Type
    NoEconomizer,            !- Outdoor Air Economizer Type
    None,                    !- Heat Recovery Type
    0.7,                     !- Sensible Heat Recovery Effectiveness {dimensionless}
    0.65;                    !- Latent Heat Recovery Effectiveness {dimensionless}

HVACTemplate:Zone:IdealLoadsAirSystem,
    APTO02_P2,               !- Zone Name
    Thermostat,              !- Template Thermostat Name
    TLB Occupation Schedule, !- System Availability Schedule Name
    30,                      !- Maximum Heating Supply Air Temperature {C}
    13,                      !- Minimum Cooling Supply Air Temperature {C}
    0.0156,                  !- Maximum Heating Supply Air Humidity Ratio {kgWater/kgDryAir}
    0.0077,                  !- Minimum Cooling Supply Air Humidity Ratio {kgWater/kgDryAir}
    NoLimit,                 !- Heating Limit
    ,                        !- Maximum Heating Air Flow Rate {m3/s}
    ,                        !- Maximum Sensible Heating Capacity {W}
    NoLimit,                 !- Cooling Limit
    ,                        !- Maximum Cooling Air Flow Rate {m3/s}
    ,                        !- Maximum Total Cooling Capacity {W}
    ,                        !- Heating Availability Schedule Name
    ,                        !- Cooling Availability Schedule Name
    ConstantSensibleHeatRatio,  !- Dehumidification Control Type
    0.7,                     !- Cooling Sensible Heat Ratio {dimensionless}
    60,                      !- Dehumidification Setpoint {percent}
    None,                    !- Humidification Control Type
    30,                      !- Humidification Setpoint {percent}
    None,                    !- Outdoor Air Method
    0.00944,                 !- Outdoor Air Flow Rate per Person {m3/s}
    ,                        !- Outdoor Air Flow Rate per Zone Floor Area {m3/s-m2}
    ,                        !- Outdoor Air Flow Rate per Zone {m3/s}
    ,                        !- Design Specification Outdoor Air Object Name
    None,                    !- Demand Controlled Ventilation Type
    NoEconomizer,            !- Outdoor Air Economizer Type
    None,                    !- Heat Recovery Type
    0.7,                     !- Sensible Heat Recovery Effectiveness {dimensionless}
    0.65;                    !- Latent Heat Recovery Effectiveness {dimensionless}

HVACTemplate:Zone:IdealLoadsAirSystem,
    APTO02_P3,               !- Zone Name
    Thermostat,              !- Template Thermostat Name
    TLB Occupation Schedule, !- System Availability Schedule Name
    30,                      !- Maximum Heating Supply Air Temperature {C}
    13,                      !- Minimum Cooling Supply Air Temperature {C}
    0.0156,                  !- Maximum Heating Supply Air Humidity Ratio {kgWater/kgDryAir}
    0.0077,                  !- Minimum Cooling Supply Air Humidity Ratio {kgWater/kgDryAir}
    NoLimit,                 !- Heating Limit
    ,                        !- Maximum Heating Air Flow Rate {m3/s}
    ,                        !- Maximum Sensible Heating Capacity {W}
    NoLimit,                 !- Cooling Limit
    ,                        !- Maximum Cooling Air Flow Rate {m3/s}
    ,                        !- Maximum Total Cooling Capacity {W}
    ,                        !- Heating Availability Schedule Name
    ,                        !- Cooling Availability Schedule Name
    ConstantSensibleHeatRatio,  !- Dehumidification Control Type
    0.7,                     !- Cooling Sensible Heat Ratio {dimensionless}
    60,                      !- Dehumidification Setpoint {percent}
    None,                    !- Humidification Control Type
    30,                      !- Humidification Setpoint {percent}
    None,                    !- Outdoor Air Method
    0.00944,                 !- Outdoor Air Flow Rate per Person {m3/s}
    ,                        !- Outdoor Air Flow Rate per Zone Floor Area {m3/s-m2}
    ,                        !- Outdoor Air Flow Rate per Zone {m3/s}
    ,                        !- Design Specification Outdoor Air Object Name
    None,                    !- Demand Controlled Ventilation Type
    NoEconomizer,            !- Outdoor Air Economizer Type
    None,                    !- Heat Recovery Type
    0.7,                     !- Sensible Heat Recovery Effectiveness {dimensionless}
    0.65;                    !- Latent Heat Recovery Effectiveness {dimensionless}

HVACTemplate:Zone:IdealLoadsAirSystem,
    APTO02_P4,               !- Zone Name
    Thermostat,              !- Template Thermostat Name
    TLB Occupation Schedule, !- System Availability Schedule Name
    30,                      !- Maximum Heating Supply Air Temperature {C}
    13,                      !- Minimum Cooling Supply Air Temperature {C}
    0.0156,                  !- Maximum Heating Supply Air Humidity Ratio {kgWater/kgDryAir}
    0.0077,                  !- Minimum Cooling Supply Air Humidity Ratio {kgWater/kgDryAir}
    NoLimit,                 !- Heating Limit
    ,                        !- Maximum Heating Air Flow Rate {m3/s}
    ,                        !- Maximum Sensible Heating Capacity {W}
    NoLimit,                 !- Cooling Limit
    ,                        !- Maximum Cooling Air Flow Rate {m3/s}
    ,                        !- Maximum Total Cooling Capacity {W}
    ,                        !- Heating Availability Schedule Name
    ,                        !- Cooling Availability Schedule Name
    ConstantSensibleHeatRatio,  !- Dehumidification Control Type
    0.7,                     !- Cooling Sensible Heat Ratio {dimensionless}
    60,                      !- Dehumidification Setpoint {percent}
    None,                    !- Humidification Control Type
    30,                      !- Humidification Setpoint {percent}
    None,                    !- Outdoor Air Method
    0.00944,                 !- Outdoor Air Flow Rate per Person {m3/s}
    ,                        !- Outdoor Air Flow Rate per Zone Floor Area {m3/s-m2}
    ,                        !- Outdoor Air Flow Rate per Zone {m3/s}
    ,                        !- Design Specification Outdoor Air Object Name
    None,                    !- Demand Controlled Ventilation Type
    NoEconomizer,            !- Outdoor Air Economizer Type
    None,                    !- Heat Recovery Type
    0.7,                     !- Sensible Heat Recovery Effectiveness {dimensionless}
    0.65;                    !- Latent Heat Recovery Effectiveness {dimensionless}

HVACTemplate:Zone:IdealLoadsAirSystem,
    APTO02_P5,               !- Zone Name
    Thermostat,              !- Template Thermostat Name
    TLB Occupation Schedule, !- System Availability Schedule Name
    30,                      !- Maximum Heating Supply Air Temperature {C}
    13,                      !- Minimum Cooling Supply Air Temperature {C}
    0.0156,                  !- Maximum Heating Supply Air Humidity Ratio {kgWater/kgDryAir}
    0.0077,                  !- Minimum Cooling Supply Air Humidity Ratio {kgWater/kgDryAir}
    NoLimit,                 !- Heating Limit
    ,                        !- Maximum Heating Air Flow Rate {m3/s}
    ,                        !- Maximum Sensible Heating Capacity {W}
    NoLimit,                 !- Cooling Limit
    ,                        !- Maximum Cooling Air Flow Rate {m3/s}
    ,                        !- Maximum Total Cooling Capacity {W}
    ,                        !- Heating Availability Schedule Name
    ,                        !- Cooling Availability Schedule Name
    ConstantSensibleHeatRatio,  !- Dehumidification Control Type
    0.7,                     !- Cooling Sensible Heat Ratio {dimensionless}
    60,                      !- Dehumidification Setpoint {percent}
    None,                    !- Humidification Control Type
    30,                      !- Humidification Setpoint {percent}
    None,                    !- Outdoor Air Method
    0.00944,                 !- Outdoor Air Flow Rate per Person {m3/s}
    ,                        !- Outdoor Air Flow Rate per Zone Floor Area {m3/s-m2}
    ,                        !- Outdoor Air Flow Rate per Zone {m3/s}
    ,                        !- Design Specification Outdoor Air Object Name
    None,                    !- Demand Controlled Ventilation Type
    NoEconomizer,            !- Outdoor Air Economizer Type
    None,                    !- Heat Recovery Type
    0.7,                     !- Sensible Heat Recovery Effectiveness {dimensionless}
    0.65;                    !- Latent Heat Recovery Effectiveness {dimensionless}

HVACTemplate:Zone:IdealLoadsAirSystem,
    APTO03_P1,               !- Zone Name
    Thermostat,              !- Template Thermostat Name
    TLB Occupation Schedule, !- System Availability Schedule Name
    30,                      !- Maximum Heating Supply Air Temperature {C}
    13,                      !- Minimum Cooling Supply Air Temperature {C}
    0.0156,                  !- Maximum Heating Supply Air Humidity Ratio {kgWater/kgDryAir}
    0.0077,                  !- Minimum Cooling Supply Air Humidity Ratio {kgWater/kgDryAir}
    NoLimit,                 !- Heating Limit
    ,                        !- Maximum Heating Air Flow Rate {m3/s}
    ,                        !- Maximum Sensible Heating Capacity {W}
    NoLimit,                 !- Cooling Limit
    ,                        !- Maximum Cooling Air Flow Rate {m3/s}
    ,                        !- Maximum Total Cooling Capacity {W}
    ,                        !- Heating Availability Schedule Name
    ,                        !- Cooling Availability Schedule Name
    ConstantSensibleHeatRatio,  !- Dehumidification Control Type
    0.7,                     !- Cooling Sensible Heat Ratio {dimensionless}
    60,                      !- Dehumidification Setpoint {percent}
    None,                    !- Humidification Control Type
    30,                      !- Humidification Setpoint {percent}
    None,                    !- Outdoor Air Method
    0.00944,                 !- Outdoor Air Flow Rate per Person {m3/s}
    ,                        !- Outdoor Air Flow Rate per Zone Floor Area {m3/s-m2}
    ,                        !- Outdoor Air Flow Rate per Zone {m3/s}
    ,                        !- Design Specification Outdoor Air Object Name
    None,                    !- Demand Controlled Ventilation Type
    NoEconomizer,            !- Outdoor Air Economizer Type
    None,                    !- Heat Recovery Type
    0.7,                     !- Sensible Heat Recovery Effectiveness {dimensionless}
    0.65;                    !- Latent Heat Recovery Effectiveness {dimensionless}

HVACTemplate:Zone:IdealLoadsAirSystem,
    APTO03_P2,               !- Zone Name
    Thermostat,              !- Template Thermostat Name
    TLB Occupation Schedule, !- System Availability Schedule Name
    30,                      !- Maximum Heating Supply Air Temperature {C}
    13,                      !- Minimum Cooling Supply Air Temperature {C}
    0.0156,                  !- Maximum Heating Supply Air Humidity Ratio {kgWater/kgDryAir}
    0.0077,                  !- Minimum Cooling Supply Air Humidity Ratio {kgWater/kgDryAir}
    NoLimit,                 !- Heating Limit
    ,                        !- Maximum Heating Air Flow Rate {m3/s}
    ,                        !- Maximum Sensible Heating Capacity {W}
    NoLimit,                 !- Cooling Limit
    ,                        !- Maximum Cooling Air Flow Rate {m3/s}
    ,                        !- Maximum Total Cooling Capacity {W}
    ,                        !- Heating Availability Schedule Name
    ,                        !- Cooling Availability Schedule Name
    ConstantSensibleHeatRatio,  !- Dehumidification Control Type
    0.7,                     !- Cooling Sensible Heat Ratio {dimensionless}
    60,                      !- Dehumidification Setpoint {percent}
    None,                    !- Humidification Control Type
    30,                      !- Humidification Setpoint {percent}
    None,                    !- Outdoor Air Method
    0.00944,                 !- Outdoor Air Flow Rate per Person {m3/s}
    ,                        !- Outdoor Air Flow Rate per Zone Floor Area {m3/s-m2}
    ,                        !- Outdoor Air Flow Rate per Zone {m3/s}
    ,                        !- Design Specification Outdoor Air Object Name
    None,                    !- Demand Controlled Ventilation Type
    NoEconomizer,            !- Outdoor Air Economizer Type
    None,                    !- Heat Recovery Type
    0.7,                     !- Sensible Heat Recovery Effectiveness {dimensionless}
    0.65;                    !- Latent Heat Recovery Effectiveness {dimensionless}

HVACTemplate:Zone:IdealLoadsAirSystem,
    APTO03_P3,               !- Zone Name
    Thermostat,              !- Template Thermostat Name
    TLB Occupation Schedule, !- System Availability Schedule Name
    30,                      !- Maximum Heating Supply Air Temperature {C}
    13,                      !- Minimum Cooling Supply Air Temperature {C}
    0.0156,                  !- Maximum Heating Supply Air Humidity Ratio {kgWater/kgDryAir}
    0.0077,                  !- Minimum Cooling Supply Air Humidity Ratio {kgWater/kgDryAir}
    NoLimit,                 !- Heating Limit
    ,                        !- Maximum Heating Air Flow Rate {m3/s}
    ,                        !- Maximum Sensible Heating Capacity {W}
    NoLimit,                 !- Cooling Limit
    ,                        !- Maximum Cooling Air Flow Rate {m3/s}
    ,                        !- Maximum Total Cooling Capacity {W}
    ,                        !- Heating Availability Schedule Name
    ,                        !- Cooling Availability Schedule Name
    ConstantSensibleHeatRatio,  !- Dehumidification Control Type
    0.7,                     !- Cooling Sensible Heat Ratio {dimensionless}
    60,                      !- Dehumidification Setpoint {percent}
    None,                    !- Humidification Control Type
    30,                      !- Humidification Setpoint {percent}
    None,                    !- Outdoor Air Method
    0.00944,                 !- Outdoor Air Flow Rate per Person {m3/s}
    ,                        !- Outdoor Air Flow Rate per Zone Floor Area {m3/s-m2}
    ,                        !- Outdoor Air Flow Rate per Zone {m3/s}
    ,                        !- Design Specification Outdoor Air Object Name
    None,                    !- Demand Controlled Ventilation Type
    NoEconomizer,            !- Outdoor Air Economizer Type
    None,                    !- Heat Recovery Type
    0.7,                     !- Sensible Heat Recovery Effectiveness {dimensionless}
    0.65;                    !- Latent Heat Recovery Effectiveness {dimensionless}

HVACTemplate:Zone:IdealLoadsAirSystem,
    APTO03_P4,               !- Zone Name
    Thermostat,              !- Template Thermostat Name
    TLB Occupation Schedule, !- System Availability Schedule Name
    30,                      !- Maximum Heating Supply Air Temperature {C}
    13,                      !- Minimum Cooling Supply Air Temperature {C}
    0.0156,                  !- Maximum Heating Supply Air Humidity Ratio {kgWater/kgDryAir}
    0.0077,                  !- Minimum Cooling Supply Air Humidity Ratio {kgWater/kgDryAir}
    NoLimit,                 !- Heating Limit
    ,                        !- Maximum Heating Air Flow Rate {m3/s}
    ,                        !- Maximum Sensible Heating Capacity {W}
    NoLimit,                 !- Cooling Limit
    ,                        !- Maximum Cooling Air Flow Rate {m3/s}
    ,                        !- Maximum Total Cooling Capacity {W}
    ,                        !- Heating Availability Schedule Name
    ,                        !- Cooling Availability Schedule Name
    ConstantSensibleHeatRatio,  !- Dehumidification Control Type
    0.7,                     !- Cooling Sensible Heat Ratio {dimensionless}
    60,                      !- Dehumidification Setpoint {percent}
    None,                    !- Humidification Control Type
    30,                      !- Humidification Setpoint {percent}
    None,                    !- Outdoor Air Method
    0.00944,                 !- Outdoor Air Flow Rate per Person {m3/s}
    ,                        !- Outdoor Air Flow Rate per Zone Floor Area {m3/s-m2}
    ,                        !- Outdoor Air Flow Rate per Zone {m3/s}
    ,                        !- Design Specification Outdoor Air Object Name
    None,                    !- Demand Controlled Ventilation Type
    NoEconomizer,            !- Outdoor Air Economizer Type
    None,                    !- Heat Recovery Type
    0.7,                     !- Sensible Heat Recovery Effectiveness {dimensionless}
    0.65;                    !- Latent Heat Recovery Effectiveness {dimensionless}

HVACTemplate:Zone:IdealLoadsAirSystem,
    APTO03_P5,               !- Zone Name
    Thermostat,              !- Template Thermostat Name
    TLB Occupation Schedule, !- System Availability Schedule Name
    30,                      !- Maximum Heating Supply Air Temperature {C}
    13,                      !- Minimum Cooling Supply Air Temperature {C}
    0.0156,                  !- Maximum Heating Supply Air Humidity Ratio {kgWater/kgDryAir}
    0.0077,                  !- Minimum Cooling Supply Air Humidity Ratio {kgWater/kgDryAir}
    NoLimit,                 !- Heating Limit
    ,                        !- Maximum Heating Air Flow Rate {m3/s}
    ,                        !- Maximum Sensible Heating Capacity {W}
    NoLimit,                 !- Cooling Limit
    ,                        !- Maximum Cooling Air Flow Rate {m3/s}
    ,                        !- Maximum Total Cooling Capacity {W}
    ,                        !- Heating Availability Schedule Name
    ,                        !- Cooling Availability Schedule Name
    ConstantSensibleHeatRatio,  !- Dehumidification Control Type
    0.7,                     !- Cooling Sensible Heat Ratio {dimensionless}
    60,                      !- Dehumidification Setpoint {percent}
    None,                    !- Humidification Control Type
    30,                      !- Humidification Setpoint {percent}
    None,                    !- Outdoor Air Method
    0.00944,                 !- Outdoor Air Flow Rate per Person {m3/s}
    ,                        !- Outdoor Air Flow Rate per Zone Floor Area {m3/s-m2}
    ,                        !- Outdoor Air Flow Rate per Zone {m3/s}
    ,                        !- Design Specification Outdoor Air Object Name
    None,                    !- Demand Controlled Ventilation Type
    NoEconomizer,            !- Outdoor Air Economizer Type
    None,                    !- Heat Recovery Type
    0.7,                     !- Sensible Heat Recovery Effectiveness {dimensionless}
    0.65;                    !- Latent Heat Recovery Effectiveness {dimensionless}

HVACTemplate:Zone:IdealLoadsAirSystem,
    APTO04_P1,               !- Zone Name
    Thermostat,              !- Template Thermostat Name
    TLB Occupation Schedule, !- System Availability Schedule Name
    30,                      !- Maximum Heating Supply Air Temperature {C}
    13,                      !- Minimum Cooling Supply Air Temperature {C}
    0.0156,                  !- Maximum Heating Supply Air Humidity Ratio {kgWater/kgDryAir}
    0.0077,                  !- Minimum Cooling Supply Air Humidity Ratio {kgWater/kgDryAir}
    NoLimit,                 !- Heating Limit
    ,                        !- Maximum Heating Air Flow Rate {m3/s}
    ,                        !- Maximum Sensible Heating Capacity {W}
    NoLimit,                 !- Cooling Limit
    ,                        !- Maximum Cooling Air Flow Rate {m3/s}
    ,                        !- Maximum Total Cooling Capacity {W}
    ,                        !- Heating Availability Schedule Name
    ,                        !- Cooling Availability Schedule Name
    ConstantSensibleHeatRatio,  !- Dehumidification Control Type
    0.7,                     !- Cooling Sensible Heat Ratio {dimensionless}
    60,                      !- Dehumidification Setpoint {percent}
    None,                    !- Humidification Control Type
    30,                      !- Humidification Setpoint {percent}
    None,                    !- Outdoor Air Method
    0.00944,                 !- Outdoor Air Flow Rate per Person {m3/s}
    ,                        !- Outdoor Air Flow Rate per Zone Floor Area {m3/s-m2}
    ,                        !- Outdoor Air Flow Rate per Zone {m3/s}
    ,                        !- Design Specification Outdoor Air Object Name
    None,                    !- Demand Controlled Ventilation Type
    NoEconomizer,            !- Outdoor Air Economizer Type
    None,                    !- Heat Recovery Type
    0.7,                     !- Sensible Heat Recovery Effectiveness {dimensionless}
    0.65;                    !- Latent Heat Recovery Effectiveness {dimensionless}

HVACTemplate:Zone:IdealLoadsAirSystem,
    APTO04_P2,               !- Zone Name
    Thermostat,              !- Template Thermostat Name
    TLB Occupation Schedule, !- System Availability Schedule Name
    30,                      !- Maximum Heating Supply Air Temperature {C}
    13,                      !- Minimum Cooling Supply Air Temperature {C}
    0.0156,                  !- Maximum Heating Supply Air Humidity Ratio {kgWater/kgDryAir}
    0.0077,                  !- Minimum Cooling Supply Air Humidity Ratio {kgWater/kgDryAir}
    NoLimit,                 !- Heating Limit
    ,                        !- Maximum Heating Air Flow Rate {m3/s}
    ,                        !- Maximum Sensible Heating Capacity {W}
    NoLimit,                 !- Cooling Limit
    ,                        !- Maximum Cooling Air Flow Rate {m3/s}
    ,                        !- Maximum Total Cooling Capacity {W}
    ,                        !- Heating Availability Schedule Name
    ,                        !- Cooling Availability Schedule Name
    ConstantSensibleHeatRatio,  !- Dehumidification Control Type
    0.7,                     !- Cooling Sensible Heat Ratio {dimensionless}
    60,                      !- Dehumidification Setpoint {percent}
    None,                    !- Humidification Control Type
    30,                      !- Humidification Setpoint {percent}
    None,                    !- Outdoor Air Method
    0.00944,                 !- Outdoor Air Flow Rate per Person {m3/s}
    ,                        !- Outdoor Air Flow Rate per Zone Floor Area {m3/s-m2}
    ,                        !- Outdoor Air Flow Rate per Zone {m3/s}
    ,                        !- Design Specification Outdoor Air Object Name
    None,                    !- Demand Controlled Ventilation Type
    NoEconomizer,            !- Outdoor Air Economizer Type
    None,                    !- Heat Recovery Type
    0.7,                     !- Sensible Heat Recovery Effectiveness {dimensionless}
    0.65;                    !- Latent Heat Recovery Effectiveness {dimensionless}

HVACTemplate:Zone:IdealLoadsAirSystem,
    APTO04_P3,               !- Zone Name
    Thermostat,              !- Template Thermostat Name
    TLB Occupation Schedule, !- System Availability Schedule Name
    30,                      !- Maximum Heating Supply Air Temperature {C}
    13,                      !- Minimum Cooling Supply Air Temperature {C}
    0.0156,                  !- Maximum Heating Supply Air Humidity Ratio {kgWater/kgDryAir}
    0.0077,                  !- Minimum Cooling Supply Air Humidity Ratio {kgWater/kgDryAir}
    NoLimit,                 !- Heating Limit
    ,                        !- Maximum Heating Air Flow Rate {m3/s}
    ,                        !- Maximum Sensible Heating Capacity {W}
    NoLimit,                 !- Cooling Limit
    ,                        !- Maximum Cooling Air Flow Rate {m3/s}
    ,                        !- Maximum Total Cooling Capacity {W}
    ,                        !- Heating Availability Schedule Name
    ,                        !- Cooling Availability Schedule Name
    ConstantSensibleHeatRatio,  !- Dehumidification Control Type
    0.7,                     !- Cooling Sensible Heat Ratio {dimensionless}
    60,                      !- Dehumidification Setpoint {percent}
    None,                    !- Humidification Control Type
    30,                      !- Humidification Setpoint {percent}
    None,                    !- Outdoor Air Method
    0.00944,                 !- Outdoor Air Flow Rate per Person {m3/s}
    ,                        !- Outdoor Air Flow Rate per Zone Floor Area {m3/s-m2}
    ,                        !- Outdoor Air Flow Rate per Zone {m3/s}
    ,                        !- Design Specification Outdoor Air Object Name
    None,                    !- Demand Controlled Ventilation Type
    NoEconomizer,            !- Outdoor Air Economizer Type
    None,                    !- Heat Recovery Type
    0.7,                     !- Sensible Heat Recovery Effectiveness {dimensionless}
    0.65;                    !- Latent Heat Recovery Effectiveness {dimensionless}

HVACTemplate:Zone:IdealLoadsAirSystem,
    APTO04_P4,               !- Zone Name
    Thermostat,              !- Template Thermostat Name
    TLB Occupation Schedule, !- System Availability Schedule Name
    30,                      !- Maximum Heating Supply Air Temperature {C}
    13,                      !- Minimum Cooling Supply Air Temperature {C}
    0.0156,                  !- Maximum Heating Supply Air Humidity Ratio {kgWater/kgDryAir}
    0.0077,                  !- Minimum Cooling Supply Air Humidity Ratio {kgWater/kgDryAir}
    NoLimit,                 !- Heating Limit
    ,                        !- Maximum Heating Air Flow Rate {m3/s}
    ,                        !- Maximum Sensible Heating Capacity {W}
    NoLimit,                 !- Cooling Limit
    ,                        !- Maximum Cooling Air Flow Rate {m3/s}
    ,                        !- Maximum Total Cooling Capacity {W}
    ,                        !- Heating Availability Schedule Name
    ,                        !- Cooling Availability Schedule Name
    ConstantSensibleHeatRatio,  !- Dehumidification Control Type
    0.7,                     !- Cooling Sensible Heat Ratio {dimensionless}
    60,                      !- Dehumidification Setpoint {percent}
    None,                    !- Humidification Control Type
    30,                      !- Humidification Setpoint {percent}
    None,                    !- Outdoor Air Method
    0.00944,                 !- Outdoor Air Flow Rate per Person {m3/s}
    ,                        !- Outdoor Air Flow Rate per Zone Floor Area {m3/s-m2}
    ,                        !- Outdoor Air Flow Rate per Zone {m3/s}
    ,                        !- Design Specification Outdoor Air Object Name
    None,                    !- Demand Controlled Ventilation Type
    NoEconomizer,            !- Outdoor Air Economizer Type
    None,                    !- Heat Recovery Type
    0.7,                     !- Sensible Heat Recovery Effectiveness {dimensionless}
    0.65;                    !- Latent Heat Recovery Effectiveness {dimensionless}

HVACTemplate:Zone:IdealLoadsAirSystem,
    APTO04_P5,               !- Zone Name
    Thermostat,              !- Template Thermostat Name
    TLB Occupation Schedule, !- System Availability Schedule Name
    30,                      !- Maximum Heating Supply Air Temperature {C}
    13,                      !- Minimum Cooling Supply Air Temperature {C}
    0.0156,                  !- Maximum Heating Supply Air Humidity Ratio {kgWater/kgDryAir}
    0.0077,                  !- Minimum Cooling Supply Air Humidity Ratio {kgWater/kgDryAir}
    NoLimit,                 !- Heating Limit
    ,                        !- Maximum Heating Air Flow Rate {m3/s}
    ,                        !- Maximum Sensible Heating Capacity {W}
    NoLimit,                 !- Cooling Limit
    ,                        !- Maximum Cooling Air Flow Rate {m3/s}
    ,                        !- Maximum Total Cooling Capacity {W}
    ,                        !- Heating Availability Schedule Name
    ,                        !- Cooling Availability Schedule Name
    ConstantSensibleHeatRatio,  !- Dehumidification Control Type
    0.7,                     !- Cooling Sensible Heat Ratio {dimensionless}
    60,                      !- Dehumidification Setpoint {percent}
    None,                    !- Humidification Control Type
    30,                      !- Humidification Setpoint {percent}
    None,                    !- Outdoor Air Method
    0.00944,                 !- Outdoor Air Flow Rate per Person {m3/s}
    ,                        !- Outdoor Air Flow Rate per Zone Floor Area {m3/s-m2}
    ,                        !- Outdoor Air Flow Rate per Zone {m3/s}
    ,                        !- Design Specification Outdoor Air Object Name
    None,                    !- Demand Controlled Ventilation Type
    NoEconomizer,            !- Outdoor Air Economizer Type
    None,                    !- Heat Recovery Type
    0.7,                     !- Sensible Heat Recovery Effectiveness {dimensionless}
    0.65;                    !- Latent Heat Recovery Effectiveness {dimensionless}


!-   ===========  ALL OBJECTS IN CLASS: OUTPUT:VARIABLEDICTIONARY ===========

Output:VariableDictionary,
    IDF;                     !- Key Field


!-   ===========  ALL OBJECTS IN CLASS: OUTPUT:TABLE:SUMMARYREPORTS ===========

Output:Table:SummaryReports,
    AllSummary;              !- Report 1 Name


!-   ===========  ALL OBJECTS IN CLASS: OUTPUTCONTROL:TABLE:STYLE ===========

OutputControl:Table:Style,
    CommaAndHTML,            !- Column Separator
    JtoKWH;                  !- Unit Conversion


!-   ===========  ALL OBJECTS IN CLASS: OUTPUT:VARIABLE ===========

Output:Variable,
    *,                       !- Key Value
    Zone Ideal Loads Zone Total Heating Energy,  !- Variable Name
    Monthly;                 !- Reporting Frequency

Output:Variable,
    *,                       !- Key Value
    Zone Ideal Loads Zone Total Cooling Energy,  !- Variable Name
    Monthly;                 !- Reporting Frequency


!-   ===========  ALL OBJECTS IN CLASS: OUTPUT:METER ===========

Output:Meter,
    DistrictCooling:HVAC,    !- Key Name
    Monthly;                 !- Reporting Frequency

Output:Meter,
    DistrictHeating:HVAC,    !- Key Name
    Monthly;                 !- Reporting Frequency

