!-Generator IDFEditor 1.50
!-Option SortedOrder

!-NOTE: All comments with '!-' are ignored by the IDFEditor and are generated automatically.
!-      Use '!' comments if they need to be retained when using the IDFEditor.


!-   ===========  ALL OBJECTS IN CLASS: VERSION ===========

Version,
    9.0;                     !- Version Identifier


!-   ===========  ALL OBJECTS IN CLASS: SIMULATIONCONTROL ===========

SimulationControl,
    Yes,                     !- Do Zone Sizing Calculation
    Yes,                     !- Do System Sizing Calculation
    Yes,                     !- Do Plant Sizing Calculation
    No,                      !- Run Simulation for Sizing Periods
    Yes;                     !- Run Simulation for Weather File Run Periods


!-   ===========  ALL OBJECTS IN CLASS: BUILDING ===========

Building,
    ElisRegina,              !- Name
    358.95554,               !- North Axis {deg}
    City,                    !- Terrain
    0.4,                     !- Loads Convergence Tolerance Value
    0.4,                     !- Temperature Convergence Tolerance Value {deltaC}
    FullExterior,            !- Solar Distribution
    25,                      !- Maximum Number of Warmup Days
    ;                        !- Minimum Number of Warmup Days


!-   ===========  ALL OBJECTS IN CLASS: ZONEAIRCONTAMINANTBALANCE ===========

ZoneAirContaminantBalance,
    Yes,                     !- Carbon Dioxide Concentration
    CO Concentration;        !- Outdoor Carbon Dioxide Schedule Name


!-   ===========  ALL OBJECTS IN CLASS: TIMESTEP ===========

Timestep,
    4;                       !- Number of Timesteps per Hour


!-   ===========  ALL OBJECTS IN CLASS: SITE:LOCATION ===========

Site:Location,
    PassoFundo_RS,           !- Name
    -28.26,                  !- Latitude {deg}
    -52.4,                   !- Longitude {deg}
    -3.0,                    !- Time Zone {hr}
    686;                     !- Elevation {m}


!-   ===========  ALL OBJECTS IN CLASS: SIZINGPERIOD:DESIGNDAY ===========

SizingPeriod:DesignDay,
    PassoFundo_inverno_DB,   !- Name
    6,                       !- Month
    5,                       !- Day of Month
    WinterDesignDay,         !- Day Type
    21.8,                    !- Maximum Dry-Bulb Temperature {C}
    7.2,                     !- Daily Dry-Bulb Temperature Range {deltaC}
    DefaultMultipliers,      !- Dry-Bulb Temperature Range Modifier Type
    ,                        !- Dry-Bulb Temperature Range Modifier Day Schedule Name
    DewPoint,                !- Humidity Condition Type
    16.8,                    !- Wetbulb or DewPoint at Maximum Dry-Bulb {C}
    ,                        !- Humidity Condition Day Schedule Name
    ,                        !- Humidity Ratio at Maximum Dry-Bulb {kgWater/kgDryAir}
    ,                        !- Enthalpy at Maximum Dry-Bulb {J/kg}
    ,                        !- Daily Wet-Bulb Temperature Range {deltaC}
    100034,                  !- Barometric Pressure {Pa}
    6.9,                     !- Wind Speed {m/s}
    45,                      !- Wind Direction {deg}
    No,                      !- Rain Indicator
    No,                      !- Snow Indicator
    No,                      !- Daylight Saving Time Indicator
    ASHRAEClearSky,          !- Solar Model Indicator
    ,                        !- Beam Solar Day Schedule Name
    ,                        !- Diffuse Solar Day Schedule Name
    ,                        !- ASHRAE Clear Sky Optical Depth for Beam Irradiance (taub) {dimensionless}
    ,                        !- ASHRAE Clear Sky Optical Depth for Diffuse Irradiance (taud) {dimensionless}
    0;                       !- Sky Clearness

SizingPeriod:DesignDay,
    PassoFundo_verao_DB,     !- Name
    1,                       !- Month
    10,                      !- Day of Month
    SummerDesignDay,         !- Day Type
    36.1,                    !- Maximum Dry-Bulb Temperature {C}
    8.7,                     !- Daily Dry-Bulb Temperature Range {deltaC}
    DefaultMultipliers,      !- Dry-Bulb Temperature Range Modifier Type
    ,                        !- Dry-Bulb Temperature Range Modifier Day Schedule Name
    DewPoint,                !- Humidity Condition Type
    25.5,                    !- Wetbulb or DewPoint at Maximum Dry-Bulb {C}
    ,                        !- Humidity Condition Day Schedule Name
    ,                        !- Humidity Ratio at Maximum Dry-Bulb {kgWater/kgDryAir}
    ,                        !- Enthalpy at Maximum Dry-Bulb {J/kg}
    ,                        !- Daily Wet-Bulb Temperature Range {deltaC}
    100034,                  !- Barometric Pressure {Pa}
    8.3,                     !- Wind Speed {m/s}
    90,                      !- Wind Direction {deg}
    No,                      !- Rain Indicator
    No,                      !- Snow Indicator
    No,                      !- Daylight Saving Time Indicator
    ASHRAEClearSky,          !- Solar Model Indicator
    ,                        !- Beam Solar Day Schedule Name
    ,                        !- Diffuse Solar Day Schedule Name
    ,                        !- ASHRAE Clear Sky Optical Depth for Beam Irradiance (taub) {dimensionless}
    ,                        !- ASHRAE Clear Sky Optical Depth for Diffuse Irradiance (taud) {dimensionless}
    1;                       !- Sky Clearness


!-   ===========  ALL OBJECTS IN CLASS: RUNPERIOD ===========

RunPeriod,
    ,                        !- Name
    1,                       !- Begin Month
    1,                       !- Begin Day of Month
    ,                        !- Begin Year
    12,                      !- End Month
    31,                      !- End Day of Month
    ,                        !- End Year
    ,                        !- Day of Week for Start Day
    Yes,                     !- Use Weather File Holidays and Special Days
    Yes,                     !- Use Weather File Daylight Saving Period
    No,                      !- Apply Weekend Holiday Rule
    Yes,                     !- Use Weather File Rain Indicators
    Yes,                     !- Use Weather File Snow Indicators
    No;                      !- Treat Weather as Actual


!-   ===========  ALL OBJECTS IN CLASS: RUNPERIODCONTROL:SPECIALDAYS ===========

RunPeriodControl:SpecialDays,
    Conf Universal,          !- Name
    January 1,               !- Start Date
    1,                       !- Duration {days}
    Holiday;                 !- Special Day Type

RunPeriodControl:SpecialDays,
    Carnaval,                !- Name
    3rd Tuesday in February, !- Start Date
    1,                       !- Duration {days}
    Holiday;                 !- Special Day Type

RunPeriodControl:SpecialDays,
    Sexta-Feira Santa,       !- Name
    1st Friday in April,     !- Start Date
    1,                       !- Duration {days}
    Holiday;                 !- Special Day Type

RunPeriodControl:SpecialDays,
    Tiradentes,              !- Name
    April 21,                !- Start Date
    1,                       !- Duration {days}
    Holiday;                 !- Special Day Type

RunPeriodControl:SpecialDays,
    Dia do Trabalho,         !- Name
    May 1,                   !- Start Date
    1,                       !- Duration {days}
    Holiday;                 !- Special Day Type

RunPeriodControl:SpecialDays,
    Corpus Christi,          !- Name
    1st Thursday in June,    !- Start Date
    1,                       !- Duration {days}
    Holiday;                 !- Special Day Type

RunPeriodControl:SpecialDays,
    Independencia,           !- Name
    September 7,             !- Start Date
    1,                       !- Duration {days}
    Holiday;                 !- Special Day Type

RunPeriodControl:SpecialDays,
    Nossa Senhora Aparecida, !- Name
    October 12,              !- Start Date
    1,                       !- Duration {days}
    Holiday;                 !- Special Day Type

RunPeriodControl:SpecialDays,
    Finados,                 !- Name
    November 2,              !- Start Date
    1,                       !- Duration {days}
    Holiday;                 !- Special Day Type

RunPeriodControl:SpecialDays,
    Proc Republica,          !- Name
    November 15,             !- Start Date
    1,                       !- Duration {days}
    Holiday;                 !- Special Day Type

RunPeriodControl:SpecialDays,
    Natal,                   !- Name
    December 25,             !- Start Date
    1,                       !- Duration {days}
    Holiday;                 !- Special Day Type

RunPeriodControl:SpecialDays,
    Dia do Gaucho,           !- Name
    September 20,            !- Start Date
    1,                       !- Duration {days}
    Holiday;                 !- Special Day Type


!-   ===========  ALL OBJECTS IN CLASS: RUNPERIODCONTROL:DAYLIGHTSAVINGTIME ===========

RunPeriodControl:DaylightSavingTime,
    2nd Sunday in March,     !- Start Date
    1st Sunday in November;  !- End Date


!-   ===========  ALL OBJECTS IN CLASS: SITE:GROUNDTEMPERATURE:BUILDINGSURFACE ===========

Site:GroundTemperature:BuildingSurface,
    23.2,                    !- January Ground Temperature {C}
    23.3,                    !- February Ground Temperature {C}
    23.3,                    !- March Ground Temperature {C}
    22.5,                    !- April Ground Temperature {C}
    21.6,                    !- May Ground Temperature {C}
    20.7,                    !- June Ground Temperature {C}
    20.5,                    !- July Ground Temperature {C}
    21.2,                    !- August Ground Temperature {C}
    21.4,                    !- September Ground Temperature {C}
    22.2,                    !- October Ground Temperature {C}
    23.1,                    !- November Ground Temperature {C}
    23.3;                    !- December Ground Temperature {C}


!-   ===========  ALL OBJECTS IN CLASS: SCHEDULETYPELIMITS ===========

ScheduleTypeLimits,
    Any Number;              !- Name

ScheduleTypeLimits,
    Fraction,                !- Name
    0,                       !- Lower Limit Value
    1,                       !- Upper Limit Value
    CONTINUOUS;              !- Numeric Type

ScheduleTypeLimits,
    Temperature,             !- Name
    -60,                     !- Lower Limit Value
    200,                     !- Upper Limit Value
    CONTINUOUS;              !- Numeric Type

ScheduleTypeLimits,
    On/Off,                  !- Name
    0,                       !- Lower Limit Value
    1,                       !- Upper Limit Value
    DISCRETE;                !- Numeric Type

ScheduleTypeLimits,
    Control Type,            !- Name
    0,                       !- Lower Limit Value
    4,                       !- Upper Limit Value
    DISCRETE;                !- Numeric Type

ScheduleTypeLimits,
    Humidity,                !- Name
    10,                      !- Lower Limit Value
    90,                      !- Upper Limit Value
    CONTINUOUS;              !- Numeric Type

ScheduleTypeLimits,
    Number;                  !- Name


!-   ===========  ALL OBJECTS IN CLASS: SCHEDULE:COMPACT ===========

Schedule:Compact,
    Always On,               !- Name
    On/Off,                  !- Schedule Type Limits Name
    Through: 12/31,          !- Field 1
    For: AllDays,            !- Field 2
    Until: 24:00,            !- Field 3
    1.0;                     !- Field 4

Schedule:Compact,
    Always Off,              !- Name
    On/Off,                  !- Schedule Type Limits Name
    Through: 12/31,          !- Field 1
    For: AllDays,            !- Field 2
    Until: 24:00,            !- Field 3
    0.0;                     !- Field 4

Schedule:Compact,
    VN_19,                   !- Name
    Temperature,             !- Schedule Type Limits Name
    Through: 12/31,          !- Field 1
    For: AllDays,            !- Field 2
    Until: 24:00,            !- Field 3
    19;                      !- Field 4

Schedule:Compact,
    TLB Occupation Schedule, !- Name
    Fraction,                !- Schedule Type Limits Name
    Through: 12/31,          !- Field 1
    For: AllDays,            !- Field 2
    Until: 08:00,            !- Field 3
    1,                       !- Field 4
    Until: 14:00,            !- Field 5
    0,                       !- Field 6
    Until: 18:00,            !- Field 7
    .5,                      !- Field 8
    Until: 24:00,            !- Field 9
    1;                       !- Field 10

Schedule:Compact,
    TLB Ilumination Schedule,!- Name
    Fraction,                !- Schedule Type Limits Name
    Through: 12/31,          !- Field 1
    For: AllDays,            !- Field 2
    Until: 06:00,            !- Field 3
    0,                       !- Field 4
    Until: 08:00,            !- Field 5
    1,                       !- Field 6
    Until: 16:00,            !- Field 7
    0,                       !- Field 8
    Until: 24:00,            !- Field 9
    1;                       !- Field 10

Schedule:Compact,
    TBL Activities,          !- Name
    Any Number,              !- Schedule Type Limits Name
    Through: 12/31,          !- Field 1
    For: AllDays,            !- Field 2
    Until: 08:00,            !- Field 3
    81,                      !- Field 4
    Until: 14:00,            !- Field 5
    0,                       !- Field 6
    Until: 22:00,            !- Field 7
    108,                     !- Field 8
    Until: 24:00,            !- Field 9
    81;                      !- Field 10

Schedule:Compact,
    TLB INI-R Equipments,    !- Name
    Fraction,                !- Schedule Type Limits Name
    Through: 12/31,          !- Field 1
    For: AllDays,            !- Field 2
    Until: 14:00,            !- Field 3
    0,                       !- Field 4
    Until: 22:00,            !- Field 5
    1,                       !- Field 6
    Until: 24:00,            !- Field 7
    0;                       !- Field 8

Schedule:Compact,
    CO Concentration,        !- Name
    Any Number,              !- Schedule Type Limits Name
    Through: 12/31,          !- Field 1
    For: AllDays,            !- Field 2
    Until: 24:00,            !- Field 3
    400;                     !- Field 4


!-   ===========  ALL OBJECTS IN CLASS: MATERIAL ===========

Material,
    Argamassa piso,          !- Name
    Smooth,                  !- Roughness
    0.02,                    !- Thickness {m}
    1.15,                    !- Conductivity {W/m-K}
    1800,                    !- Density {kg/m3}
    1000,                    !- Specific Heat {J/kg-K}
    0.85,                    !- Thermal Absorptance
    0.3,                     !- Solar Absorptance
    0.3;                     !- Visible Absorptance

Material,
    Fibercement tile,        !- Name
    Smooth,                  !- Roughness
    0.006,                   !- Thickness {m}
    0.65,                    !- Conductivity {W/m-K}
    1700,                    !- Density {kg/m3}
    840,                     !- Specific Heat {J/kg-K}
    0.9,                     !- Thermal Absorptance
    0.65,                    !- Solar Absorptance
    0.6;                     !- Visible Absorptance

Material,
    Ceramica equiv externa,  !- Name
    MediumSmooth,            !- Roughness
    0.18,                    !- Thickness {m}
    0.9,                     !- Conductivity {W/m-K}
    785,                     !- Density {kg/m3}
    920;                     !- Specific Heat {J/kg-K}

Material,
    Ext mortar,              !- Name
    Smooth,                  !- Roughness
    0.025,                   !- Thickness {m}
    1.15,                    !- Conductivity {W/m-K}
    1800,                    !- Density {kg/m3}
    1000,                    !- Specific Heat {J/kg-K}
    0.9,                     !- Thermal Absorptance
    0.58,                    !- Solar Absorptance
    0.2;                     !- Visible Absorptance

Material,
    Revestimento Ceramico 10mm,  !- Name
    MediumSmooth,            !- Roughness
    0.01,                    !- Thickness {m}
    1.3,                     !- Conductivity {W/m-K}
    2300,                    !- Density {kg/m3}
    965,                     !- Specific Heat {J/kg-K}
    0.9,                     !- Thermal Absorptance
    0.2,                     !- Solar Absorptance
    0.2;                     !- Visible Absorptance

Material,
    Ceramica equiv interna,  !- Name
    MediumSmooth,            !- Roughness
    0.18,                    !- Thickness {m}
    0.9,                     !- Conductivity {W/m-K}
    785,                     !- Density {kg/m3}
    920;                     !- Specific Heat {J/kg-K}

Material,
    Argamassa reb int,       !- Name
    Smooth,                  !- Roughness
    0.015,                   !- Thickness {m}
    1.15,                    !- Conductivity {W/m-K}
    1800,                    !- Density {kg/m3}
    1000,                    !- Specific Heat {J/kg-K}
    0.9,                     !- Thermal Absorptance
    0.2,                     !- Solar Absorptance
    0.2;                     !- Visible Absorptance

Material,
    Rockwool,                !- Name
    MediumRough,             !- Roughness
    0.005,                   !- Thickness {m}
    0.045,                   !- Conductivity {W/m-K}
    200,                     !- Density {kg/m3}
    750,                     !- Specific Heat {J/kg-K}
    0.9,                     !- Thermal Absorptance
    0.2,                     !- Solar Absorptance
    0.2;                     !- Visible Absorptance

Material,
    Concreto laje,           !- Name
    MediumRough,             !- Roughness
    0.1,                     !- Thickness {m}
    1.75,                    !- Conductivity {W/m-K}
    2200,                    !- Density {kg/m3}
    1000;                    !- Specific Heat {J/kg-K}

Material,
    Porta exterior,          !- Name
    Smooth,                  !- Roughness
    0.05,                    !- Thickness {m}
    0.2,                     !- Conductivity {W/m-K}
    850,                     !- Density {kg/m3}
    2300,                    !- Specific Heat {J/kg-K}
    0.9,                     !- Thermal Absorptance
    0.2,                     !- Solar Absorptance
    0.2;                     !- Visible Absorptance

Material,
    Placa cimenticia,        !- Name
    MediumRough,             !- Roughness
    0.01,                    !- Thickness {m}
    0.95,                    !- Conductivity {W/m-K}
    2200,                    !- Density {kg/m3}
    840,                     !- Specific Heat {J/kg-K}
    0.9,                     !- Thermal Absorptance
    0.58,                    !- Solar Absorptance
    0.2;                     !- Visible Absorptance

Material,
    Rockwool_north,          !- Name
    MediumRough,             !- Roughness
    0.12,                    !- Thickness {m}
    0.045,                   !- Conductivity {W/m-K}
    200,                     !- Density {kg/m3}
    750,                     !- Specific Heat {J/kg-K}
    0.9,                     !- Thermal Absorptance
    0.2,                     !- Solar Absorptance
    0.2;                     !- Visible Absorptance

Material,
    Rockwool_south,          !- Name
    MediumRough,             !- Roughness
    0.11,                    !- Thickness {m}
    0.045,                   !- Conductivity {W/m-K}
    200,                     !- Density {kg/m3}
    750,                     !- Specific Heat {J/kg-K}
    0.9,                     !- Thermal Absorptance
    0.2,                     !- Solar Absorptance
    0.2;                     !- Visible Absorptance

Material,
    Rockwool_west,           !- Name
    MediumRough,             !- Roughness
    0.15,                    !- Thickness {m}
    0.045,                   !- Conductivity {W/m-K}
    200,                     !- Density {kg/m3}
    750,                     !- Specific Heat {J/kg-K}
    0.9,                     !- Thermal Absorptance
    0.2,                     !- Solar Absorptance
    0.2;                     !- Visible Absorptance

Material,
    Rockwool_east,           !- Name
    MediumRough,             !- Roughness
    0.13,                    !- Thickness {m}
    0.045,                   !- Conductivity {W/m-K}
    200,                     !- Density {kg/m3}
    750,                     !- Specific Heat {J/kg-K}
    0.9,                     !- Thermal Absorptance
    0.2,                     !- Solar Absorptance
    0.2;                     !- Visible Absorptance

Material,
    Rockwool_roof,           !- Name
    MediumRough,             !- Roughness
    0.15,                    !- Thickness {m}
    0.045,                   !- Conductivity {W/m-K}
    200,                     !- Density {kg/m3}
    750,                     !- Specific Heat {J/kg-K}
    0.9,                     !- Thermal Absorptance
    0.2,                     !- Solar Absorptance
    0.2;                     !- Visible Absorptance


!-   ===========  ALL OBJECTS IN CLASS: MATERIAL:AIRGAP ===========

Material:AirGap,
    F04 Wall air space resistance,  !- Name
    0.15;                    !- Thermal Resistance {m2-K/W}

Material:AirGap,
    F05 Ceiling air space resistance,  !- Name
    0.18;                    !- Thermal Resistance {m2-K/W}

Material:AirGap,
    Ar ascendente maior 5,   !- Name
    0.14;                    !- Thermal Resistance {m2-K/W}

Material:AirGap,
    AR_5cm_HOR,              !- Name
    0.16;                    !- Thermal Resistance {m2-K/W}

Material:AirGap,
    AR_5cm_DESC,             !- Name
    0.21;                    !- Thermal Resistance {m2-K/W}

Material:AirGap,
    AR_cobertura,            !- Name
    0.14;                    !- Thermal Resistance {m2-K/W}


!-   ===========  ALL OBJECTS IN CLASS: WINDOWMATERIAL:GLAZING ===========

WindowMaterial:Glazing,
    Clear 3mm,               !- Name
    SpectralAverage,         !- Optical Data Type
    ,                        !- Window Glass Spectral Data Set Name
    0.009,                   !- Thickness {m}
    0.837,                   !- Solar Transmittance at Normal Incidence
    0.075,                   !- Front Side Solar Reflectance at Normal Incidence
    0.075,                   !- Back Side Solar Reflectance at Normal Incidence
    0.898,                   !- Visible Transmittance at Normal Incidence
    0.081,                   !- Front Side Visible Reflectance at Normal Incidence
    0.081,                   !- Back Side Visible Reflectance at Normal Incidence
    0,                       !- Infrared Transmittance at Normal Incidence
    0.84,                    !- Front Side Infrared Hemispherical Emissivity
    0.84,                    !- Back Side Infrared Hemispherical Emissivity
    0.9;                     !- Conductivity {W/m-K}


!-   ===========  ALL OBJECTS IN CLASS: WINDOWMATERIAL:GAS ===========

WindowMaterial:Gas,
    Air 13mm,                !- Name
    Air,                     !- Gas Type
    0.0127;                  !- Thickness {m}


!-   ===========  ALL OBJECTS IN CLASS: CONSTRUCTION ===========

Construction,
    Exterior Floor,          !- Name
    Revestimento Ceramico 10mm,  !- Outside Layer
    Argamassa piso,          !- Layer 2
    Concreto laje;           !- Layer 3

Construction,
    Interior Wall,           !- Name
    Argamassa reb int,       !- Outside Layer
    Ceramica equiv interna,  !- Layer 2
    Argamassa reb int;       !- Layer 3

Construction,
    Exterior Roof,           !- Name
    Fibercement tile,        !- Outside Layer
    AR_5cm_DESC,             !- Layer 2
    Rockwool_roof,           !- Layer 3
    Concreto laje,           !- Layer 4
    Argamassa reb int;       !- Layer 5

Construction,
    Exterior Window,         !- Name
    Clear 3mm;               !- Outside Layer

Construction,
    Exterior Door,           !- Name
    Porta exterior;          !- Outside Layer

Construction,
    Interior Floor,          !- Name
    Revestimento Ceramico 10mm,  !- Outside Layer
    Argamassa piso,          !- Layer 2
    Concreto laje,           !- Layer 3
    Argamassa reb int;       !- Layer 4

Construction,
    Interior Ceiling,        !- Name
    Argamassa reb int,       !- Outside Layer
    Concreto laje,           !- Layer 2
    Argamassa piso,          !- Layer 3
    Revestimento Ceramico 10mm;  !- Layer 4

Construction,
    Exterior Wall North,     !- Name
    Ext mortar,              !- Outside Layer
    Placa cimenticia,        !- Layer 2
    Rockwool_north,          !- Layer 3
    Ceramica equiv interna,  !- Layer 4
    Argamassa reb int;       !- Layer 5

Construction,
    Exterior Wall South,     !- Name
    Ext mortar,              !- Outside Layer
    Placa cimenticia,        !- Layer 2
    Rockwool_south,          !- Layer 3
    Ceramica equiv interna,  !- Layer 4
    Argamassa reb int;       !- Layer 5

Construction,
    Exterior Wall West,      !- Name
    Ext mortar,              !- Outside Layer
    Placa cimenticia,        !- Layer 2
    Rockwool_west,           !- Layer 3
    Ceramica equiv interna,  !- Layer 4
    Argamassa reb int;       !- Layer 5

Construction,
    Exterior Wall East,      !- Name
    Ext mortar,              !- Outside Layer
    Placa cimenticia,        !- Layer 2
    Rockwool_east,           !- Layer 3
    Ceramica equiv interna,  !- Layer 4
    Argamassa reb int;       !- Layer 5


!-   ===========  ALL OBJECTS IN CLASS: GLOBALGEOMETRYRULES ===========

GlobalGeometryRules,
    UpperLeftCorner,         !- Starting Vertex Position
    Counterclockwise,        !- Vertex Entry Direction
    Relative;                !- Coordinate System


!-   ===========  ALL OBJECTS IN CLASS: ZONE ===========

Zone,
    APTO02_P1,               !- Name
    0.0,                     !- Direction of Relative North {deg}
    0.0,                     !- X Origin {m}
    0.0,                     !- Y Origin {m}
    0.0,                     !- Z Origin {m}
    ,                        !- Type
    1;                       !- Multiplier

Zone,
    APTO01_P1,               !- Name
    0.0,                     !- Direction of Relative North {deg}
    0.0,                     !- X Origin {m}
    0.0,                     !- Y Origin {m}
    0.0,                     !- Z Origin {m}
    ,                        !- Type
    1;                       !- Multiplier

Zone,
    APTO03_P1,               !- Name
    0.0,                     !- Direction of Relative North {deg}
    0.0,                     !- X Origin {m}
    0.0,                     !- Y Origin {m}
    0.0,                     !- Z Origin {m}
    ,                        !- Type
    1;                       !- Multiplier

Zone,
    APTO04_P1,               !- Name
    0.0,                     !- Direction of Relative North {deg}
    0.0,                     !- X Origin {m}
    0.0,                     !- Y Origin {m}
    0.0,                     !- Z Origin {m}
    ,                        !- Type
    1;                       !- Multiplier

Zone,
    CIRCULA_P1,              !- Name
    0.0,                     !- Direction of Relative North {deg}
    0.0,                     !- X Origin {m}
    0.0,                     !- Y Origin {m}
    0.0,                     !- Z Origin {m}
    ,                        !- Type
    1;                       !- Multiplier

Zone,
    APTO03_P2,               !- Name
    0.0,                     !- Direction of Relative North {deg}
    0.0,                     !- X Origin {m}
    0.0,                     !- Y Origin {m}
    0.0,                     !- Z Origin {m}
    ,                        !- Type
    1;                       !- Multiplier

Zone,
    APTO04_P2,               !- Name
    0.0,                     !- Direction of Relative North {deg}
    0.0,                     !- X Origin {m}
    0.0,                     !- Y Origin {m}
    0.0,                     !- Z Origin {m}
    ,                        !- Type
    1;                       !- Multiplier

Zone,
    APTO02_P2,               !- Name
    0.0,                     !- Direction of Relative North {deg}
    0.0,                     !- X Origin {m}
    0.0,                     !- Y Origin {m}
    0.0,                     !- Z Origin {m}
    ,                        !- Type
    1;                       !- Multiplier

Zone,
    CIRCULA_P2,              !- Name
    0.0,                     !- Direction of Relative North {deg}
    0.0,                     !- X Origin {m}
    0.0,                     !- Y Origin {m}
    0.0,                     !- Z Origin {m}
    ,                        !- Type
    1;                       !- Multiplier

Zone,
    APTO01_P2,               !- Name
    0.0,                     !- Direction of Relative North {deg}
    0.0,                     !- X Origin {m}
    0.0,                     !- Y Origin {m}
    0.0,                     !- Z Origin {m}
    ,                        !- Type
    1;                       !- Multiplier

Zone,
    CIRCULA_P3,              !- Name
    0.0,                     !- Direction of Relative North {deg}
    0.0,                     !- X Origin {m}
    0.0,                     !- Y Origin {m}
    0.0,                     !- Z Origin {m}
    ,                        !- Type
    1;                       !- Multiplier

Zone,
    APTO03_P3,               !- Name
    0.0,                     !- Direction of Relative North {deg}
    0.0,                     !- X Origin {m}
    0.0,                     !- Y Origin {m}
    0.0,                     !- Z Origin {m}
    ,                        !- Type
    1;                       !- Multiplier

Zone,
    APTO01_P3,               !- Name
    0.0,                     !- Direction of Relative North {deg}
    0.0,                     !- X Origin {m}
    0.0,                     !- Y Origin {m}
    0.0,                     !- Z Origin {m}
    ,                        !- Type
    1;                       !- Multiplier

Zone,
    APTO04_P3,               !- Name
    0.0,                     !- Direction of Relative North {deg}
    0.0,                     !- X Origin {m}
    0.0,                     !- Y Origin {m}
    0.0,                     !- Z Origin {m}
    ,                        !- Type
    1;                       !- Multiplier

Zone,
    APTO02_P3,               !- Name
    0.0,                     !- Direction of Relative North {deg}
    0.0,                     !- X Origin {m}
    0.0,                     !- Y Origin {m}
    0.0,                     !- Z Origin {m}
    ,                        !- Type
    1;                       !- Multiplier

Zone,
    APTO02_P4,               !- Name
    0.0,                     !- Direction of Relative North {deg}
    0.0,                     !- X Origin {m}
    0.0,                     !- Y Origin {m}
    0.0,                     !- Z Origin {m}
    ,                        !- Type
    1;                       !- Multiplier

Zone,
    CIRCULA_P4,              !- Name
    0.0,                     !- Direction of Relative North {deg}
    0.0,                     !- X Origin {m}
    0.0,                     !- Y Origin {m}
    0.0,                     !- Z Origin {m}
    ,                        !- Type
    1;                       !- Multiplier

Zone,
    APTO03_P4,               !- Name
    0.0,                     !- Direction of Relative North {deg}
    0.0,                     !- X Origin {m}
    0.0,                     !- Y Origin {m}
    0.0,                     !- Z Origin {m}
    ,                        !- Type
    1;                       !- Multiplier

Zone,
    APTO01_P4,               !- Name
    0.0,                     !- Direction of Relative North {deg}
    0.0,                     !- X Origin {m}
    0.0,                     !- Y Origin {m}
    0.0,                     !- Z Origin {m}
    ,                        !- Type
    1;                       !- Multiplier

Zone,
    APTO04_P4,               !- Name
    0.0,                     !- Direction of Relative North {deg}
    0.0,                     !- X Origin {m}
    0.0,                     !- Y Origin {m}
    0.0,                     !- Z Origin {m}
    ,                        !- Type
    1;                       !- Multiplier

Zone,
    APTO03_P5,               !- Name
    0.0,                     !- Direction of Relative North {deg}
    0.0,                     !- X Origin {m}
    0.0,                     !- Y Origin {m}
    0.0,                     !- Z Origin {m}
    ,                        !- Type
    1;                       !- Multiplier

Zone,
    APTO04_P5,               !- Name
    0.0,                     !- Direction of Relative North {deg}
    0.0,                     !- X Origin {m}
    0.0,                     !- Y Origin {m}
    0.0,                     !- Z Origin {m}
    ,                        !- Type
    1;                       !- Multiplier

Zone,
    APTO02_P5,               !- Name
    0.0,                     !- Direction of Relative North {deg}
    0.0,                     !- X Origin {m}
    0.0,                     !- Y Origin {m}
    0.0,                     !- Z Origin {m}
    ,                        !- Type
    1;                       !- Multiplier

Zone,
    CIRCULA_P5,              !- Name
    0.0,                     !- Direction of Relative North {deg}
    0.0,                     !- X Origin {m}
    0.0,                     !- Y Origin {m}
    0.0,                     !- Z Origin {m}
    ,                        !- Type
    1;                       !- Multiplier

Zone,
    APTO01_P5,               !- Name
    0.0,                     !- Direction of Relative North {deg}
    0.0,                     !- X Origin {m}
    0.0,                     !- Y Origin {m}
    0.0,                     !- Z Origin {m}
    ,                        !- Type
    1;                       !- Multiplier


!-   ===========  ALL OBJECTS IN CLASS: ZONELIST ===========

ZoneList,
    TodosAps,                !- Name
    APTO01_P1,               !- Zone 1 Name
    APTO01_P2,               !- Zone 2 Name
    APTO01_P3,               !- Zone 3 Name
    APTO01_P4,               !- Zone 4 Name
    APTO01_P5,               !- Zone 5 Name
    APTO02_P1,               !- Zone 6 Name
    APTO02_P2,               !- Zone 7 Name
    APTO02_P3,               !- Zone 8 Name
    APTO02_P4,               !- Zone 9 Name
    APTO02_P5,               !- Zone 10 Name
    APTO03_P1,               !- Zone 11 Name
    APTO03_P2,               !- Zone 12 Name
    APTO03_P3,               !- Zone 13 Name
    APTO03_P4,               !- Zone 14 Name
    APTO03_P5,               !- Zone 15 Name
    APTO04_P1,               !- Zone 16 Name
    APTO04_P2,               !- Zone 17 Name
    APTO04_P3,               !- Zone 18 Name
    APTO04_P4,               !- Zone 19 Name
    APTO04_P5;               !- Zone 20 Name


!-   ===========  ALL OBJECTS IN CLASS: BUILDINGSURFACE:DETAILED ===========

BuildingSurface:Detailed,
    2E73EC,                  !- Name
    Floor,                   !- Surface Type
    Exterior Floor,          !- Construction Name
    APTO02_P1,               !- Zone Name
    Ground,                  !- Outside Boundary Condition
    ,                        !- Outside Boundary Condition Object
    NoSun,                   !- Sun Exposure
    NoWind,                  !- Wind Exposure
    ,                        !- View Factor to Ground
    8,                       !- Number of Vertices
    5.800000000000,          !- Vertex 1 X-coordinate {m}
    6.750000000000,          !- Vertex 1 Y-coordinate {m}
    0.000000000000,          !- Vertex 1 Z-coordinate {m}
    5.800000000000,          !- Vertex 2 X-coordinate {m}
    3.600000000000,          !- Vertex 2 Y-coordinate {m}
    0.000000000000,          !- Vertex 2 Z-coordinate {m}
    7.450000000000,          !- Vertex 3 X-coordinate {m}
    3.600000000000,          !- Vertex 3 Y-coordinate {m}
    0.000000000000,          !- Vertex 3 Z-coordinate {m}
    7.450000000000,          !- Vertex 4 X-coordinate {m}
    0.000000000000,          !- Vertex 4 Y-coordinate {m}
    0.000000000000,          !- Vertex 4 Z-coordinate {m}
    1.350000000000,          !- Vertex 5 X-coordinate {m}
    0.000000000000,          !- Vertex 5 Y-coordinate {m}
    0.000000000000,          !- Vertex 5 Z-coordinate {m}
    1.350000000000,          !- Vertex 6 X-coordinate {m}
    0.950000000000,          !- Vertex 6 Y-coordinate {m}
    0.000000000000,          !- Vertex 6 Z-coordinate {m}
    0.000000000000,          !- Vertex 7 X-coordinate {m}
    0.950000000000,          !- Vertex 7 Y-coordinate {m}
    0.000000000000,          !- Vertex 7 Z-coordinate {m}
    0.000000000000,          !- Vertex 8 X-coordinate {m}
    6.750000000000,          !- Vertex 8 Y-coordinate {m}
    0.000000000000;          !- Vertex 8 Z-coordinate {m}

BuildingSurface:Detailed,
    D80DBE,                  !- Name
    Wall,                    !- Surface Type
    Exterior Wall West,      !- Construction Name
    APTO02_P1,               !- Zone Name
    Outdoors,                !- Outside Boundary Condition
    ,                        !- Outside Boundary Condition Object
    SunExposed,              !- Sun Exposure
    WindExposed,             !- Wind Exposure
    ,                        !- View Factor to Ground
    4,                       !- Number of Vertices
    0.000000000000,          !- Vertex 1 X-coordinate {m}
    6.750000000000,          !- Vertex 1 Y-coordinate {m}
    2.850000000000,          !- Vertex 1 Z-coordinate {m}
    0.000000000000,          !- Vertex 2 X-coordinate {m}
    6.750000000000,          !- Vertex 2 Y-coordinate {m}
    0.000000000000,          !- Vertex 2 Z-coordinate {m}
    0.000000000000,          !- Vertex 3 X-coordinate {m}
    0.950000000000,          !- Vertex 3 Y-coordinate {m}
    0.000000000000,          !- Vertex 3 Z-coordinate {m}
    0.000000000000,          !- Vertex 4 X-coordinate {m}
    0.950000000000,          !- Vertex 4 Y-coordinate {m}
    2.850000000000;          !- Vertex 4 Z-coordinate {m}

BuildingSurface:Detailed,
    D0C134,                  !- Name
    Wall,                    !- Surface Type
    Exterior Wall South,     !- Construction Name
    APTO02_P1,               !- Zone Name
    Outdoors,                !- Outside Boundary Condition
    ,                        !- Outside Boundary Condition Object
    SunExposed,              !- Sun Exposure
    WindExposed,             !- Wind Exposure
    ,                        !- View Factor to Ground
    4,                       !- Number of Vertices
    0.000000000000,          !- Vertex 1 X-coordinate {m}
    0.950000000000,          !- Vertex 1 Y-coordinate {m}
    2.850000000000,          !- Vertex 1 Z-coordinate {m}
    0.000000000000,          !- Vertex 2 X-coordinate {m}
    0.950000000000,          !- Vertex 2 Y-coordinate {m}
    0.000000000000,          !- Vertex 2 Z-coordinate {m}
    1.350000000000,          !- Vertex 3 X-coordinate {m}
    0.950000000000,          !- Vertex 3 Y-coordinate {m}
    0.000000000000,          !- Vertex 3 Z-coordinate {m}
    1.350000000000,          !- Vertex 4 X-coordinate {m}
    0.950000000000,          !- Vertex 4 Y-coordinate {m}
    2.850000000000;          !- Vertex 4 Z-coordinate {m}

BuildingSurface:Detailed,
    5EB753,                  !- Name
    Wall,                    !- Surface Type
    Interior Wall,           !- Construction Name
    APTO02_P1,               !- Zone Name
    Surface,                 !- Outside Boundary Condition
    13F810,                  !- Outside Boundary Condition Object
    NoSun,                   !- Sun Exposure
    NoWind,                  !- Wind Exposure
    ,                        !- View Factor to Ground
    4,                       !- Number of Vertices
    7.450000000000,          !- Vertex 1 X-coordinate {m}
    0.000000000000,          !- Vertex 1 Y-coordinate {m}
    2.850000000000,          !- Vertex 1 Z-coordinate {m}
    7.450000000000,          !- Vertex 2 X-coordinate {m}
    0.000000000000,          !- Vertex 2 Y-coordinate {m}
    0.000000000000,          !- Vertex 2 Z-coordinate {m}
    7.450000000000,          !- Vertex 3 X-coordinate {m}
    3.600000000000,          !- Vertex 3 Y-coordinate {m}
    0.000000000000,          !- Vertex 3 Z-coordinate {m}
    7.450000000000,          !- Vertex 4 X-coordinate {m}
    3.600000000000,          !- Vertex 4 Y-coordinate {m}
    2.850000000000;          !- Vertex 4 Z-coordinate {m}

BuildingSurface:Detailed,
    DBBD81,                  !- Name
    Wall,                    !- Surface Type
    Exterior Wall East,      !- Construction Name
    APTO02_P1,               !- Zone Name
    Outdoors,                !- Outside Boundary Condition
    ,                        !- Outside Boundary Condition Object
    SunExposed,              !- Sun Exposure
    WindExposed,             !- Wind Exposure
    ,                        !- View Factor to Ground
    4,                       !- Number of Vertices
    5.800000000000,          !- Vertex 1 X-coordinate {m}
    3.600000000000,          !- Vertex 1 Y-coordinate {m}
    2.850000000000,          !- Vertex 1 Z-coordinate {m}
    5.800000000000,          !- Vertex 2 X-coordinate {m}
    3.600000000000,          !- Vertex 2 Y-coordinate {m}
    0.000000000000,          !- Vertex 2 Z-coordinate {m}
    5.800000000000,          !- Vertex 3 X-coordinate {m}
    6.750000000000,          !- Vertex 3 Y-coordinate {m}
    0.000000000000,          !- Vertex 3 Z-coordinate {m}
    5.800000000000,          !- Vertex 4 X-coordinate {m}
    6.750000000000,          !- Vertex 4 Y-coordinate {m}
    2.850000000000;          !- Vertex 4 Z-coordinate {m}

BuildingSurface:Detailed,
    80036F,                  !- Name
    Wall,                    !- Surface Type
    Exterior Wall North,     !- Construction Name
    APTO02_P1,               !- Zone Name
    Outdoors,                !- Outside Boundary Condition
    ,                        !- Outside Boundary Condition Object
    SunExposed,              !- Sun Exposure
    WindExposed,             !- Wind Exposure
    ,                        !- View Factor to Ground
    4,                       !- Number of Vertices
    7.450000000000,          !- Vertex 1 X-coordinate {m}
    3.600000000000,          !- Vertex 1 Y-coordinate {m}
    2.850000000000,          !- Vertex 1 Z-coordinate {m}
    7.450000000000,          !- Vertex 2 X-coordinate {m}
    3.600000000000,          !- Vertex 2 Y-coordinate {m}
    0.000000000000,          !- Vertex 2 Z-coordinate {m}
    5.800000000000,          !- Vertex 3 X-coordinate {m}
    3.600000000000,          !- Vertex 3 Y-coordinate {m}
    0.000000000000,          !- Vertex 3 Z-coordinate {m}
    5.800000000000,          !- Vertex 4 X-coordinate {m}
    3.600000000000,          !- Vertex 4 Y-coordinate {m}
    2.850000000000;          !- Vertex 4 Z-coordinate {m}

BuildingSurface:Detailed,
    D9998B,                  !- Name
    Wall,                    !- Surface Type
    Exterior Wall West,      !- Construction Name
    APTO02_P1,               !- Zone Name
    Outdoors,                !- Outside Boundary Condition
    ,                        !- Outside Boundary Condition Object
    SunExposed,              !- Sun Exposure
    WindExposed,             !- Wind Exposure
    ,                        !- View Factor to Ground
    4,                       !- Number of Vertices
    1.350000000000,          !- Vertex 1 X-coordinate {m}
    0.950000000000,          !- Vertex 1 Y-coordinate {m}
    2.850000000000,          !- Vertex 1 Z-coordinate {m}
    1.350000000000,          !- Vertex 2 X-coordinate {m}
    0.950000000000,          !- Vertex 2 Y-coordinate {m}
    0.000000000000,          !- Vertex 2 Z-coordinate {m}
    1.350000000000,          !- Vertex 3 X-coordinate {m}
    0.000000000000,          !- Vertex 3 Y-coordinate {m}
    0.000000000000,          !- Vertex 3 Z-coordinate {m}
    1.350000000000,          !- Vertex 4 X-coordinate {m}
    0.000000000000,          !- Vertex 4 Y-coordinate {m}
    2.850000000000;          !- Vertex 4 Z-coordinate {m}

BuildingSurface:Detailed,
    AC29BB,                  !- Name
    Wall,                    !- Surface Type
    Exterior Wall North,     !- Construction Name
    APTO02_P1,               !- Zone Name
    Outdoors,                !- Outside Boundary Condition
    ,                        !- Outside Boundary Condition Object
    SunExposed,              !- Sun Exposure
    WindExposed,             !- Wind Exposure
    ,                        !- View Factor to Ground
    4,                       !- Number of Vertices
    5.800000000000,          !- Vertex 1 X-coordinate {m}
    6.750000000000,          !- Vertex 1 Y-coordinate {m}
    2.850000000000,          !- Vertex 1 Z-coordinate {m}
    5.800000000000,          !- Vertex 2 X-coordinate {m}
    6.750000000000,          !- Vertex 2 Y-coordinate {m}
    0.000000000000,          !- Vertex 2 Z-coordinate {m}
    0.000000000000,          !- Vertex 3 X-coordinate {m}
    6.750000000000,          !- Vertex 3 Y-coordinate {m}
    0.000000000000,          !- Vertex 3 Z-coordinate {m}
    0.000000000000,          !- Vertex 4 X-coordinate {m}
    6.750000000000,          !- Vertex 4 Y-coordinate {m}
    2.850000000000;          !- Vertex 4 Z-coordinate {m}

BuildingSurface:Detailed,
    13DC9E,                  !- Name
    Wall,                    !- Surface Type
    Interior Wall,           !- Construction Name
    APTO02_P1,               !- Zone Name
    Surface,                 !- Outside Boundary Condition
    F46237,                  !- Outside Boundary Condition Object
    NoSun,                   !- Sun Exposure
    NoWind,                  !- Wind Exposure
    ,                        !- View Factor to Ground
    4,                       !- Number of Vertices
    1.350000000000,          !- Vertex 1 X-coordinate {m}
    0.000000000000,          !- Vertex 1 Y-coordinate {m}
    2.850000000000,          !- Vertex 1 Z-coordinate {m}
    1.350000000000,          !- Vertex 2 X-coordinate {m}
    0.000000000000,          !- Vertex 2 Y-coordinate {m}
    0.000000000000,          !- Vertex 2 Z-coordinate {m}
    7.450000000000,          !- Vertex 3 X-coordinate {m}
    0.000000000000,          !- Vertex 3 Y-coordinate {m}
    0.000000000000,          !- Vertex 3 Z-coordinate {m}
    7.450000000000,          !- Vertex 4 X-coordinate {m}
    0.000000000000,          !- Vertex 4 Y-coordinate {m}
    2.850000000000;          !- Vertex 4 Z-coordinate {m}

BuildingSurface:Detailed,
    A1838E,                  !- Name
    Ceiling,                 !- Surface Type
    Interior Ceiling,        !- Construction Name
    APTO02_P1,               !- Zone Name
    Surface,                 !- Outside Boundary Condition
    C308F5,                  !- Outside Boundary Condition Object
    NoSun,                   !- Sun Exposure
    NoWind,                  !- Wind Exposure
    ,                        !- View Factor to Ground
    8,                       !- Number of Vertices
    0.000000000000,          !- Vertex 1 X-coordinate {m}
    6.750000000000,          !- Vertex 1 Y-coordinate {m}
    2.850000000000,          !- Vertex 1 Z-coordinate {m}
    0.000000000000,          !- Vertex 2 X-coordinate {m}
    0.950000000000,          !- Vertex 2 Y-coordinate {m}
    2.850000000000,          !- Vertex 2 Z-coordinate {m}
    1.350000000000,          !- Vertex 3 X-coordinate {m}
    0.950000000000,          !- Vertex 3 Y-coordinate {m}
    2.850000000000,          !- Vertex 3 Z-coordinate {m}
    1.350000000000,          !- Vertex 4 X-coordinate {m}
    0.000000000000,          !- Vertex 4 Y-coordinate {m}
    2.850000000000,          !- Vertex 4 Z-coordinate {m}
    7.450000000000,          !- Vertex 5 X-coordinate {m}
    0.000000000000,          !- Vertex 5 Y-coordinate {m}
    2.850000000000,          !- Vertex 5 Z-coordinate {m}
    7.450000000000,          !- Vertex 6 X-coordinate {m}
    3.600000000000,          !- Vertex 6 Y-coordinate {m}
    2.850000000000,          !- Vertex 6 Z-coordinate {m}
    5.800000000000,          !- Vertex 7 X-coordinate {m}
    3.600000000000,          !- Vertex 7 Y-coordinate {m}
    2.850000000000,          !- Vertex 7 Z-coordinate {m}
    5.800000000000,          !- Vertex 8 X-coordinate {m}
    6.750000000000,          !- Vertex 8 Y-coordinate {m}
    2.850000000000;          !- Vertex 8 Z-coordinate {m}

BuildingSurface:Detailed,
    68B812,                  !- Name
    Floor,                   !- Surface Type
    Exterior Floor,          !- Construction Name
    APTO01_P1,               !- Zone Name
    Ground,                  !- Outside Boundary Condition
    ,                        !- Outside Boundary Condition Object
    NoSun,                   !- Sun Exposure
    NoWind,                  !- Wind Exposure
    ,                        !- View Factor to Ground
    8,                       !- Number of Vertices
    7.450000000000,          !- Vertex 1 X-coordinate {m}
    0.000000000000,          !- Vertex 1 Y-coordinate {m}
    0.000000000000,          !- Vertex 1 Z-coordinate {m}
    7.450000000000,          !- Vertex 2 X-coordinate {m}
    -3.600000000000,         !- Vertex 2 Y-coordinate {m}
    0.000000000000,          !- Vertex 2 Z-coordinate {m}
    5.800000000000,          !- Vertex 3 X-coordinate {m}
    -3.600000000000,         !- Vertex 3 Y-coordinate {m}
    0.000000000000,          !- Vertex 3 Z-coordinate {m}
    5.800000000000,          !- Vertex 4 X-coordinate {m}
    -6.750000000000,         !- Vertex 4 Y-coordinate {m}
    0.000000000000,          !- Vertex 4 Z-coordinate {m}
    0.000000000000,          !- Vertex 5 X-coordinate {m}
    -6.750000000000,         !- Vertex 5 Y-coordinate {m}
    0.000000000000,          !- Vertex 5 Z-coordinate {m}
    0.000000000000,          !- Vertex 6 X-coordinate {m}
    -0.950000000000,         !- Vertex 6 Y-coordinate {m}
    0.000000000000,          !- Vertex 6 Z-coordinate {m}
    1.350000000000,          !- Vertex 7 X-coordinate {m}
    -0.950000000000,         !- Vertex 7 Y-coordinate {m}
    0.000000000000,          !- Vertex 7 Z-coordinate {m}
    1.350000000000,          !- Vertex 8 X-coordinate {m}
    0.000000000000,          !- Vertex 8 Y-coordinate {m}
    0.000000000000;          !- Vertex 8 Z-coordinate {m}

BuildingSurface:Detailed,
    F46237,                  !- Name
    Wall,                    !- Surface Type
    Interior Wall,           !- Construction Name
    APTO01_P1,               !- Zone Name
    Surface,                 !- Outside Boundary Condition
    13DC9E,                  !- Outside Boundary Condition Object
    NoSun,                   !- Sun Exposure
    NoWind,                  !- Wind Exposure
    ,                        !- View Factor to Ground
    4,                       !- Number of Vertices
    7.450000000000,          !- Vertex 1 X-coordinate {m}
    0.000000000000,          !- Vertex 1 Y-coordinate {m}
    2.850000000000,          !- Vertex 1 Z-coordinate {m}
    7.450000000000,          !- Vertex 2 X-coordinate {m}
    0.000000000000,          !- Vertex 2 Y-coordinate {m}
    0.000000000000,          !- Vertex 2 Z-coordinate {m}
    1.350000000000,          !- Vertex 3 X-coordinate {m}
    0.000000000000,          !- Vertex 3 Y-coordinate {m}
    0.000000000000,          !- Vertex 3 Z-coordinate {m}
    1.350000000000,          !- Vertex 4 X-coordinate {m}
    0.000000000000,          !- Vertex 4 Y-coordinate {m}
    2.850000000000;          !- Vertex 4 Z-coordinate {m}

BuildingSurface:Detailed,
    357850,                  !- Name
    Wall,                    !- Surface Type
    Exterior Wall West,      !- Construction Name
    APTO01_P1,               !- Zone Name
    Outdoors,                !- Outside Boundary Condition
    ,                        !- Outside Boundary Condition Object
    SunExposed,              !- Sun Exposure
    WindExposed,             !- Wind Exposure
    ,                        !- View Factor to Ground
    4,                       !- Number of Vertices
    1.350000000000,          !- Vertex 1 X-coordinate {m}
    0.000000000000,          !- Vertex 1 Y-coordinate {m}
    2.850000000000,          !- Vertex 1 Z-coordinate {m}
    1.350000000000,          !- Vertex 2 X-coordinate {m}
    0.000000000000,          !- Vertex 2 Y-coordinate {m}
    0.000000000000,          !- Vertex 2 Z-coordinate {m}
    1.350000000000,          !- Vertex 3 X-coordinate {m}
    -0.950000000000,         !- Vertex 3 Y-coordinate {m}
    0.000000000000,          !- Vertex 3 Z-coordinate {m}
    1.350000000000,          !- Vertex 4 X-coordinate {m}
    -0.950000000000,         !- Vertex 4 Y-coordinate {m}
    2.850000000000;          !- Vertex 4 Z-coordinate {m}

BuildingSurface:Detailed,
    B8BCB4,                  !- Name
    Wall,                    !- Surface Type
    Exterior Wall West,      !- Construction Name
    APTO01_P1,               !- Zone Name
    Outdoors,                !- Outside Boundary Condition
    ,                        !- Outside Boundary Condition Object
    SunExposed,              !- Sun Exposure
    WindExposed,             !- Wind Exposure
    ,                        !- View Factor to Ground
    4,                       !- Number of Vertices
    0.000000000000,          !- Vertex 1 X-coordinate {m}
    -0.950000000000,         !- Vertex 1 Y-coordinate {m}
    2.850000000000,          !- Vertex 1 Z-coordinate {m}
    0.000000000000,          !- Vertex 2 X-coordinate {m}
    -0.950000000000,         !- Vertex 2 Y-coordinate {m}
    0.000000000000,          !- Vertex 2 Z-coordinate {m}
    0.000000000000,          !- Vertex 3 X-coordinate {m}
    -6.750000000000,         !- Vertex 3 Y-coordinate {m}
    0.000000000000,          !- Vertex 3 Z-coordinate {m}
    0.000000000000,          !- Vertex 4 X-coordinate {m}
    -6.750000000000,         !- Vertex 4 Y-coordinate {m}
    2.850000000000;          !- Vertex 4 Z-coordinate {m}

BuildingSurface:Detailed,
    21A2D4,                  !- Name
    Ceiling,                 !- Surface Type
    Interior Ceiling,        !- Construction Name
    APTO01_P1,               !- Zone Name
    Surface,                 !- Outside Boundary Condition
    CF2656,                  !- Outside Boundary Condition Object
    NoSun,                   !- Sun Exposure
    NoWind,                  !- Wind Exposure
    ,                        !- View Factor to Ground
    8,                       !- Number of Vertices
    0.000000000000,          !- Vertex 1 X-coordinate {m}
    -0.950000000000,         !- Vertex 1 Y-coordinate {m}
    2.850000000000,          !- Vertex 1 Z-coordinate {m}
    0.000000000000,          !- Vertex 2 X-coordinate {m}
    -6.750000000000,         !- Vertex 2 Y-coordinate {m}
    2.850000000000,          !- Vertex 2 Z-coordinate {m}
    5.800000000000,          !- Vertex 3 X-coordinate {m}
    -6.750000000000,         !- Vertex 3 Y-coordinate {m}
    2.850000000000,          !- Vertex 3 Z-coordinate {m}
    5.800000000000,          !- Vertex 4 X-coordinate {m}
    -3.600000000000,         !- Vertex 4 Y-coordinate {m}
    2.850000000000,          !- Vertex 4 Z-coordinate {m}
    7.450000000000,          !- Vertex 5 X-coordinate {m}
    -3.600000000000,         !- Vertex 5 Y-coordinate {m}
    2.850000000000,          !- Vertex 5 Z-coordinate {m}
    7.450000000000,          !- Vertex 6 X-coordinate {m}
    0.000000000000,          !- Vertex 6 Y-coordinate {m}
    2.850000000000,          !- Vertex 6 Z-coordinate {m}
    1.350000000000,          !- Vertex 7 X-coordinate {m}
    0.000000000000,          !- Vertex 7 Y-coordinate {m}
    2.850000000000,          !- Vertex 7 Z-coordinate {m}
    1.350000000000,          !- Vertex 8 X-coordinate {m}
    -0.950000000000,         !- Vertex 8 Y-coordinate {m}
    2.850000000000;          !- Vertex 8 Z-coordinate {m}

BuildingSurface:Detailed,
    79F336,                  !- Name
    Wall,                    !- Surface Type
    Exterior Wall North,     !- Construction Name
    APTO01_P1,               !- Zone Name
    Outdoors,                !- Outside Boundary Condition
    ,                        !- Outside Boundary Condition Object
    SunExposed,              !- Sun Exposure
    WindExposed,             !- Wind Exposure
    ,                        !- View Factor to Ground
    4,                       !- Number of Vertices
    1.350000000000,          !- Vertex 1 X-coordinate {m}
    -0.950000000000,         !- Vertex 1 Y-coordinate {m}
    2.850000000000,          !- Vertex 1 Z-coordinate {m}
    1.350000000000,          !- Vertex 2 X-coordinate {m}
    -0.950000000000,         !- Vertex 2 Y-coordinate {m}
    0.000000000000,          !- Vertex 2 Z-coordinate {m}
    0.000000000000,          !- Vertex 3 X-coordinate {m}
    -0.950000000000,         !- Vertex 3 Y-coordinate {m}
    0.000000000000,          !- Vertex 3 Z-coordinate {m}
    0.000000000000,          !- Vertex 4 X-coordinate {m}
    -0.950000000000,         !- Vertex 4 Y-coordinate {m}
    2.850000000000;          !- Vertex 4 Z-coordinate {m}

BuildingSurface:Detailed,
    56DE11,                  !- Name
    Wall,                    !- Surface Type
    Interior Wall,           !- Construction Name
    APTO01_P1,               !- Zone Name
    Surface,                 !- Outside Boundary Condition
    38F7D5,                  !- Outside Boundary Condition Object
    NoSun,                   !- Sun Exposure
    NoWind,                  !- Wind Exposure
    ,                        !- View Factor to Ground
    4,                       !- Number of Vertices
    7.450000000000,          !- Vertex 1 X-coordinate {m}
    -3.600000000000,         !- Vertex 1 Y-coordinate {m}
    2.850000000000,          !- Vertex 1 Z-coordinate {m}
    7.450000000000,          !- Vertex 2 X-coordinate {m}
    -3.600000000000,         !- Vertex 2 Y-coordinate {m}
    0.000000000000,          !- Vertex 2 Z-coordinate {m}
    7.450000000000,          !- Vertex 3 X-coordinate {m}
    0.000000000000,          !- Vertex 3 Y-coordinate {m}
    0.000000000000,          !- Vertex 3 Z-coordinate {m}
    7.450000000000,          !- Vertex 4 X-coordinate {m}
    0.000000000000,          !- Vertex 4 Y-coordinate {m}
    2.850000000000;          !- Vertex 4 Z-coordinate {m}

BuildingSurface:Detailed,
    107503,                  !- Name
    Wall,                    !- Surface Type
    Exterior Wall South,     !- Construction Name
    APTO01_P1,               !- Zone Name
    Outdoors,                !- Outside Boundary Condition
    ,                        !- Outside Boundary Condition Object
    SunExposed,              !- Sun Exposure
    WindExposed,             !- Wind Exposure
    ,                        !- View Factor to Ground
    4,                       !- Number of Vertices
    0.000000000000,          !- Vertex 1 X-coordinate {m}
    -6.750000000000,         !- Vertex 1 Y-coordinate {m}
    2.850000000000,          !- Vertex 1 Z-coordinate {m}
    0.000000000000,          !- Vertex 2 X-coordinate {m}
    -6.750000000000,         !- Vertex 2 Y-coordinate {m}
    0.000000000000,          !- Vertex 2 Z-coordinate {m}
    5.800000000000,          !- Vertex 3 X-coordinate {m}
    -6.750000000000,         !- Vertex 3 Y-coordinate {m}
    0.000000000000,          !- Vertex 3 Z-coordinate {m}
    5.800000000000,          !- Vertex 4 X-coordinate {m}
    -6.750000000000,         !- Vertex 4 Y-coordinate {m}
    2.850000000000;          !- Vertex 4 Z-coordinate {m}

BuildingSurface:Detailed,
    9FC1B5,                  !- Name
    Wall,                    !- Surface Type
    Exterior Wall East,      !- Construction Name
    APTO01_P1,               !- Zone Name
    Outdoors,                !- Outside Boundary Condition
    ,                        !- Outside Boundary Condition Object
    SunExposed,              !- Sun Exposure
    WindExposed,             !- Wind Exposure
    ,                        !- View Factor to Ground
    4,                       !- Number of Vertices
    5.800000000000,          !- Vertex 1 X-coordinate {m}
    -6.750000000000,         !- Vertex 1 Y-coordinate {m}
    2.850000000000,          !- Vertex 1 Z-coordinate {m}
    5.800000000000,          !- Vertex 2 X-coordinate {m}
    -6.750000000000,         !- Vertex 2 Y-coordinate {m}
    0.000000000000,          !- Vertex 2 Z-coordinate {m}
    5.800000000000,          !- Vertex 3 X-coordinate {m}
    -3.600000000000,         !- Vertex 3 Y-coordinate {m}
    0.000000000000,          !- Vertex 3 Z-coordinate {m}
    5.800000000000,          !- Vertex 4 X-coordinate {m}
    -3.600000000000,         !- Vertex 4 Y-coordinate {m}
    2.850000000000;          !- Vertex 4 Z-coordinate {m}

BuildingSurface:Detailed,
    321E96,                  !- Name
    Wall,                    !- Surface Type
    Exterior Wall South,     !- Construction Name
    APTO01_P1,               !- Zone Name
    Outdoors,                !- Outside Boundary Condition
    ,                        !- Outside Boundary Condition Object
    SunExposed,              !- Sun Exposure
    WindExposed,             !- Wind Exposure
    ,                        !- View Factor to Ground
    4,                       !- Number of Vertices
    5.800000000000,          !- Vertex 1 X-coordinate {m}
    -3.600000000000,         !- Vertex 1 Y-coordinate {m}
    2.850000000000,          !- Vertex 1 Z-coordinate {m}
    5.800000000000,          !- Vertex 2 X-coordinate {m}
    -3.600000000000,         !- Vertex 2 Y-coordinate {m}
    0.000000000000,          !- Vertex 2 Z-coordinate {m}
    7.450000000000,          !- Vertex 3 X-coordinate {m}
    -3.600000000000,         !- Vertex 3 Y-coordinate {m}
    0.000000000000,          !- Vertex 3 Z-coordinate {m}
    7.450000000000,          !- Vertex 4 X-coordinate {m}
    -3.600000000000,         !- Vertex 4 Y-coordinate {m}
    2.850000000000;          !- Vertex 4 Z-coordinate {m}

BuildingSurface:Detailed,
    608999,                  !- Name
    Floor,                   !- Surface Type
    Exterior Floor,          !- Construction Name
    APTO03_P1,               !- Zone Name
    Ground,                  !- Outside Boundary Condition
    ,                        !- Outside Boundary Condition Object
    NoSun,                   !- Sun Exposure
    NoWind,                  !- Wind Exposure
    ,                        !- View Factor to Ground
    8,                       !- Number of Vertices
    17.150000000000,         !- Vertex 1 X-coordinate {m}
    6.750000000000,          !- Vertex 1 Y-coordinate {m}
    0.000000000000,          !- Vertex 1 Z-coordinate {m}
    17.150000000000,         !- Vertex 2 X-coordinate {m}
    0.950000000000,          !- Vertex 2 Y-coordinate {m}
    0.000000000000,          !- Vertex 2 Z-coordinate {m}
    15.800000000000,         !- Vertex 3 X-coordinate {m}
    0.950000000000,          !- Vertex 3 Y-coordinate {m}
    0.000000000000,          !- Vertex 3 Z-coordinate {m}
    15.800000000000,         !- Vertex 4 X-coordinate {m}
    0.000000000000,          !- Vertex 4 Y-coordinate {m}
    0.000000000000,          !- Vertex 4 Z-coordinate {m}
    9.700000000000,          !- Vertex 5 X-coordinate {m}
    0.000000000000,          !- Vertex 5 Y-coordinate {m}
    0.000000000000,          !- Vertex 5 Z-coordinate {m}
    9.700000000000,          !- Vertex 6 X-coordinate {m}
    3.600000000000,          !- Vertex 6 Y-coordinate {m}
    0.000000000000,          !- Vertex 6 Z-coordinate {m}
    11.350000000000,         !- Vertex 7 X-coordinate {m}
    3.600000000000,          !- Vertex 7 Y-coordinate {m}
    0.000000000000,          !- Vertex 7 Z-coordinate {m}
    11.350000000000,         !- Vertex 8 X-coordinate {m}
    6.750000000000,          !- Vertex 8 Y-coordinate {m}
    0.000000000000;          !- Vertex 8 Z-coordinate {m}

BuildingSurface:Detailed,
    433A49,                  !- Name
    Ceiling,                 !- Surface Type
    Interior Ceiling,        !- Construction Name
    APTO03_P1,               !- Zone Name
    Surface,                 !- Outside Boundary Condition
    46EB6F,                  !- Outside Boundary Condition Object
    NoSun,                   !- Sun Exposure
    NoWind,                  !- Wind Exposure
    ,                        !- View Factor to Ground
    8,                       !- Number of Vertices
    11.350000000000,         !- Vertex 1 X-coordinate {m}
    6.750000000000,          !- Vertex 1 Y-coordinate {m}
    2.850000000000,          !- Vertex 1 Z-coordinate {m}
    11.350000000000,         !- Vertex 2 X-coordinate {m}
    3.600000000000,          !- Vertex 2 Y-coordinate {m}
    2.850000000000,          !- Vertex 2 Z-coordinate {m}
    9.700000000000,          !- Vertex 3 X-coordinate {m}
    3.600000000000,          !- Vertex 3 Y-coordinate {m}
    2.850000000000,          !- Vertex 3 Z-coordinate {m}
    9.700000000000,          !- Vertex 4 X-coordinate {m}
    0.000000000000,          !- Vertex 4 Y-coordinate {m}
    2.850000000000,          !- Vertex 4 Z-coordinate {m}
    15.800000000000,         !- Vertex 5 X-coordinate {m}
    0.000000000000,          !- Vertex 5 Y-coordinate {m}
    2.850000000000,          !- Vertex 5 Z-coordinate {m}
    15.800000000000,         !- Vertex 6 X-coordinate {m}
    0.950000000000,          !- Vertex 6 Y-coordinate {m}
    2.850000000000,          !- Vertex 6 Z-coordinate {m}
    17.150000000000,         !- Vertex 7 X-coordinate {m}
    0.950000000000,          !- Vertex 7 Y-coordinate {m}
    2.850000000000,          !- Vertex 7 Z-coordinate {m}
    17.150000000000,         !- Vertex 8 X-coordinate {m}
    6.750000000000,          !- Vertex 8 Y-coordinate {m}
    2.850000000000;          !- Vertex 8 Z-coordinate {m}

BuildingSurface:Detailed,
    65AC26,                  !- Name
    Wall,                    !- Surface Type
    Interior Wall,           !- Construction Name
    APTO03_P1,               !- Zone Name
    Surface,                 !- Outside Boundary Condition
    2B027A,                  !- Outside Boundary Condition Object
    NoSun,                   !- Sun Exposure
    NoWind,                  !- Wind Exposure
    ,                        !- View Factor to Ground
    4,                       !- Number of Vertices
    9.700000000000,          !- Vertex 1 X-coordinate {m}
    3.600000000000,          !- Vertex 1 Y-coordinate {m}
    2.850000000000,          !- Vertex 1 Z-coordinate {m}
    9.700000000000,          !- Vertex 2 X-coordinate {m}
    3.600000000000,          !- Vertex 2 Y-coordinate {m}
    0.000000000000,          !- Vertex 2 Z-coordinate {m}
    9.700000000000,          !- Vertex 3 X-coordinate {m}
    0.000000000000,          !- Vertex 3 Y-coordinate {m}
    0.000000000000,          !- Vertex 3 Z-coordinate {m}
    9.700000000000,          !- Vertex 4 X-coordinate {m}
    0.000000000000,          !- Vertex 4 Y-coordinate {m}
    2.850000000000;          !- Vertex 4 Z-coordinate {m}

BuildingSurface:Detailed,
    AC4F9B,                  !- Name
    Wall,                    !- Surface Type
    Exterior Wall North,     !- Construction Name
    APTO03_P1,               !- Zone Name
    Outdoors,                !- Outside Boundary Condition
    ,                        !- Outside Boundary Condition Object
    SunExposed,              !- Sun Exposure
    WindExposed,             !- Wind Exposure
    ,                        !- View Factor to Ground
    4,                       !- Number of Vertices
    11.350000000000,         !- Vertex 1 X-coordinate {m}
    3.600000000000,          !- Vertex 1 Y-coordinate {m}
    2.850000000000,          !- Vertex 1 Z-coordinate {m}
    11.350000000000,         !- Vertex 2 X-coordinate {m}
    3.600000000000,          !- Vertex 2 Y-coordinate {m}
    0.000000000000,          !- Vertex 2 Z-coordinate {m}
    9.700000000000,          !- Vertex 3 X-coordinate {m}
    3.600000000000,          !- Vertex 3 Y-coordinate {m}
    0.000000000000,          !- Vertex 3 Z-coordinate {m}
    9.700000000000,          !- Vertex 4 X-coordinate {m}
    3.600000000000,          !- Vertex 4 Y-coordinate {m}
    2.850000000000;          !- Vertex 4 Z-coordinate {m}

BuildingSurface:Detailed,
    780D9E,                  !- Name
    Wall,                    !- Surface Type
    Exterior Wall West,      !- Construction Name
    APTO03_P1,               !- Zone Name
    Outdoors,                !- Outside Boundary Condition
    ,                        !- Outside Boundary Condition Object
    SunExposed,              !- Sun Exposure
    WindExposed,             !- Wind Exposure
    ,                        !- View Factor to Ground
    4,                       !- Number of Vertices
    11.350000000000,         !- Vertex 1 X-coordinate {m}
    6.750000000000,          !- Vertex 1 Y-coordinate {m}
    2.850000000000,          !- Vertex 1 Z-coordinate {m}
    11.350000000000,         !- Vertex 2 X-coordinate {m}
    6.750000000000,          !- Vertex 2 Y-coordinate {m}
    0.000000000000,          !- Vertex 2 Z-coordinate {m}
    11.350000000000,         !- Vertex 3 X-coordinate {m}
    3.600000000000,          !- Vertex 3 Y-coordinate {m}
    0.000000000000,          !- Vertex 3 Z-coordinate {m}
    11.350000000000,         !- Vertex 4 X-coordinate {m}
    3.600000000000,          !- Vertex 4 Y-coordinate {m}
    2.850000000000;          !- Vertex 4 Z-coordinate {m}

BuildingSurface:Detailed,
    893457,                  !- Name
    Wall,                    !- Surface Type
    Exterior Wall North,     !- Construction Name
    APTO03_P1,               !- Zone Name
    Outdoors,                !- Outside Boundary Condition
    ,                        !- Outside Boundary Condition Object
    SunExposed,              !- Sun Exposure
    WindExposed,             !- Wind Exposure
    ,                        !- View Factor to Ground
    4,                       !- Number of Vertices
    17.150000000000,         !- Vertex 1 X-coordinate {m}
    6.750000000000,          !- Vertex 1 Y-coordinate {m}
    2.850000000000,          !- Vertex 1 Z-coordinate {m}
    17.150000000000,         !- Vertex 2 X-coordinate {m}
    6.750000000000,          !- Vertex 2 Y-coordinate {m}
    0.000000000000,          !- Vertex 2 Z-coordinate {m}
    11.350000000000,         !- Vertex 3 X-coordinate {m}
    6.750000000000,          !- Vertex 3 Y-coordinate {m}
    0.000000000000,          !- Vertex 3 Z-coordinate {m}
    11.350000000000,         !- Vertex 4 X-coordinate {m}
    6.750000000000,          !- Vertex 4 Y-coordinate {m}
    2.850000000000;          !- Vertex 4 Z-coordinate {m}

BuildingSurface:Detailed,
    E7EC6E,                  !- Name
    Wall,                    !- Surface Type
    Exterior Wall East,      !- Construction Name
    APTO03_P1,               !- Zone Name
    Outdoors,                !- Outside Boundary Condition
    ,                        !- Outside Boundary Condition Object
    SunExposed,              !- Sun Exposure
    WindExposed,             !- Wind Exposure
    ,                        !- View Factor to Ground
    4,                       !- Number of Vertices
    17.150000000000,         !- Vertex 1 X-coordinate {m}
    0.950000000000,          !- Vertex 1 Y-coordinate {m}
    2.850000000000,          !- Vertex 1 Z-coordinate {m}
    17.150000000000,         !- Vertex 2 X-coordinate {m}
    0.950000000000,          !- Vertex 2 Y-coordinate {m}
    0.000000000000,          !- Vertex 2 Z-coordinate {m}
    17.150000000000,         !- Vertex 3 X-coordinate {m}
    6.750000000000,          !- Vertex 3 Y-coordinate {m}
    0.000000000000,          !- Vertex 3 Z-coordinate {m}
    17.150000000000,         !- Vertex 4 X-coordinate {m}
    6.750000000000,          !- Vertex 4 Y-coordinate {m}
    2.850000000000;          !- Vertex 4 Z-coordinate {m}

BuildingSurface:Detailed,
    DC49BD,                  !- Name
    Wall,                    !- Surface Type
    Exterior Wall South,     !- Construction Name
    APTO03_P1,               !- Zone Name
    Outdoors,                !- Outside Boundary Condition
    ,                        !- Outside Boundary Condition Object
    SunExposed,              !- Sun Exposure
    WindExposed,             !- Wind Exposure
    ,                        !- View Factor to Ground
    4,                       !- Number of Vertices
    15.800000000000,         !- Vertex 1 X-coordinate {m}
    0.950000000000,          !- Vertex 1 Y-coordinate {m}
    2.850000000000,          !- Vertex 1 Z-coordinate {m}
    15.800000000000,         !- Vertex 2 X-coordinate {m}
    0.950000000000,          !- Vertex 2 Y-coordinate {m}
    0.000000000000,          !- Vertex 2 Z-coordinate {m}
    17.150000000000,         !- Vertex 3 X-coordinate {m}
    0.950000000000,          !- Vertex 3 Y-coordinate {m}
    0.000000000000,          !- Vertex 3 Z-coordinate {m}
    17.150000000000,         !- Vertex 4 X-coordinate {m}
    0.950000000000,          !- Vertex 4 Y-coordinate {m}
    2.850000000000;          !- Vertex 4 Z-coordinate {m}

BuildingSurface:Detailed,
    68AD2F,                  !- Name
    Wall,                    !- Surface Type
    Exterior Wall East,      !- Construction Name
    APTO03_P1,               !- Zone Name
    Outdoors,                !- Outside Boundary Condition
    ,                        !- Outside Boundary Condition Object
    SunExposed,              !- Sun Exposure
    WindExposed,             !- Wind Exposure
    ,                        !- View Factor to Ground
    4,                       !- Number of Vertices
    15.800000000000,         !- Vertex 1 X-coordinate {m}
    0.000000000000,          !- Vertex 1 Y-coordinate {m}
    2.850000000000,          !- Vertex 1 Z-coordinate {m}
    15.800000000000,         !- Vertex 2 X-coordinate {m}
    0.000000000000,          !- Vertex 2 Y-coordinate {m}
    0.000000000000,          !- Vertex 2 Z-coordinate {m}
    15.800000000000,         !- Vertex 3 X-coordinate {m}
    0.950000000000,          !- Vertex 3 Y-coordinate {m}
    0.000000000000,          !- Vertex 3 Z-coordinate {m}
    15.800000000000,         !- Vertex 4 X-coordinate {m}
    0.950000000000,          !- Vertex 4 Y-coordinate {m}
    2.850000000000;          !- Vertex 4 Z-coordinate {m}

BuildingSurface:Detailed,
    5C79F3,                  !- Name
    Wall,                    !- Surface Type
    Interior Wall,           !- Construction Name
    APTO03_P1,               !- Zone Name
    Surface,                 !- Outside Boundary Condition
    CE594E,                  !- Outside Boundary Condition Object
    NoSun,                   !- Sun Exposure
    NoWind,                  !- Wind Exposure
    ,                        !- View Factor to Ground
    4,                       !- Number of Vertices
    9.700000000000,          !- Vertex 1 X-coordinate {m}
    0.000000000000,          !- Vertex 1 Y-coordinate {m}
    2.850000000000,          !- Vertex 1 Z-coordinate {m}
    9.700000000000,          !- Vertex 2 X-coordinate {m}
    0.000000000000,          !- Vertex 2 Y-coordinate {m}
    0.000000000000,          !- Vertex 2 Z-coordinate {m}
    15.800000000000,         !- Vertex 3 X-coordinate {m}
    0.000000000000,          !- Vertex 3 Y-coordinate {m}
    0.000000000000,          !- Vertex 3 Z-coordinate {m}
    15.800000000000,         !- Vertex 4 X-coordinate {m}
    0.000000000000,          !- Vertex 4 Y-coordinate {m}
    2.850000000000;          !- Vertex 4 Z-coordinate {m}

BuildingSurface:Detailed,
    F75C8A,                  !- Name
    Floor,                   !- Surface Type
    Exterior Floor,          !- Construction Name
    APTO04_P1,               !- Zone Name
    Ground,                  !- Outside Boundary Condition
    ,                        !- Outside Boundary Condition Object
    NoSun,                   !- Sun Exposure
    NoWind,                  !- Wind Exposure
    ,                        !- View Factor to Ground
    8,                       !- Number of Vertices
    15.800000000000,         !- Vertex 1 X-coordinate {m}
    0.000000000000,          !- Vertex 1 Y-coordinate {m}
    0.000000000000,          !- Vertex 1 Z-coordinate {m}
    15.800000000000,         !- Vertex 2 X-coordinate {m}
    -0.950000000000,         !- Vertex 2 Y-coordinate {m}
    0.000000000000,          !- Vertex 2 Z-coordinate {m}
    17.150000000000,         !- Vertex 3 X-coordinate {m}
    -0.950000000000,         !- Vertex 3 Y-coordinate {m}
    0.000000000000,          !- Vertex 3 Z-coordinate {m}
    17.150000000000,         !- Vertex 4 X-coordinate {m}
    -6.750000000000,         !- Vertex 4 Y-coordinate {m}
    0.000000000000,          !- Vertex 4 Z-coordinate {m}
    11.350000000000,         !- Vertex 5 X-coordinate {m}
    -6.750000000000,         !- Vertex 5 Y-coordinate {m}
    0.000000000000,          !- Vertex 5 Z-coordinate {m}
    11.350000000000,         !- Vertex 6 X-coordinate {m}
    -3.600000000000,         !- Vertex 6 Y-coordinate {m}
    0.000000000000,          !- Vertex 6 Z-coordinate {m}
    9.700000000000,          !- Vertex 7 X-coordinate {m}
    -3.600000000000,         !- Vertex 7 Y-coordinate {m}
    0.000000000000,          !- Vertex 7 Z-coordinate {m}
    9.700000000000,          !- Vertex 8 X-coordinate {m}
    0.000000000000,          !- Vertex 8 Y-coordinate {m}
    0.000000000000;          !- Vertex 8 Z-coordinate {m}

BuildingSurface:Detailed,
    C11558,                  !- Name
    Ceiling,                 !- Surface Type
    Interior Ceiling,        !- Construction Name
    APTO04_P1,               !- Zone Name
    Surface,                 !- Outside Boundary Condition
    499869,                  !- Outside Boundary Condition Object
    NoSun,                   !- Sun Exposure
    NoWind,                  !- Wind Exposure
    ,                        !- View Factor to Ground
    8,                       !- Number of Vertices
    9.700000000000,          !- Vertex 1 X-coordinate {m}
    0.000000000000,          !- Vertex 1 Y-coordinate {m}
    2.850000000000,          !- Vertex 1 Z-coordinate {m}
    9.700000000000,          !- Vertex 2 X-coordinate {m}
    -3.600000000000,         !- Vertex 2 Y-coordinate {m}
    2.850000000000,          !- Vertex 2 Z-coordinate {m}
    11.350000000000,         !- Vertex 3 X-coordinate {m}
    -3.600000000000,         !- Vertex 3 Y-coordinate {m}
    2.850000000000,          !- Vertex 3 Z-coordinate {m}
    11.350000000000,         !- Vertex 4 X-coordinate {m}
    -6.750000000000,         !- Vertex 4 Y-coordinate {m}
    2.850000000000,          !- Vertex 4 Z-coordinate {m}
    17.150000000000,         !- Vertex 5 X-coordinate {m}
    -6.750000000000,         !- Vertex 5 Y-coordinate {m}
    2.850000000000,          !- Vertex 5 Z-coordinate {m}
    17.150000000000,         !- Vertex 6 X-coordinate {m}
    -0.950000000000,         !- Vertex 6 Y-coordinate {m}
    2.850000000000,          !- Vertex 6 Z-coordinate {m}
    15.800000000000,         !- Vertex 7 X-coordinate {m}
    -0.950000000000,         !- Vertex 7 Y-coordinate {m}
    2.850000000000,          !- Vertex 7 Z-coordinate {m}
    15.800000000000,         !- Vertex 8 X-coordinate {m}
    0.000000000000,          !- Vertex 8 Y-coordinate {m}
    2.850000000000;          !- Vertex 8 Z-coordinate {m}

BuildingSurface:Detailed,
    CE594E,                  !- Name
    Wall,                    !- Surface Type
    Interior Wall,           !- Construction Name
    APTO04_P1,               !- Zone Name
    Surface,                 !- Outside Boundary Condition
    5C79F3,                  !- Outside Boundary Condition Object
    NoSun,                   !- Sun Exposure
    NoWind,                  !- Wind Exposure
    ,                        !- View Factor to Ground
    4,                       !- Number of Vertices
    15.800000000000,         !- Vertex 1 X-coordinate {m}
    0.000000000000,          !- Vertex 1 Y-coordinate {m}
    2.850000000000,          !- Vertex 1 Z-coordinate {m}
    15.800000000000,         !- Vertex 2 X-coordinate {m}
    0.000000000000,          !- Vertex 2 Y-coordinate {m}
    0.000000000000,          !- Vertex 2 Z-coordinate {m}
    9.700000000000,          !- Vertex 3 X-coordinate {m}
    0.000000000000,          !- Vertex 3 Y-coordinate {m}
    0.000000000000,          !- Vertex 3 Z-coordinate {m}
    9.700000000000,          !- Vertex 4 X-coordinate {m}
    0.000000000000,          !- Vertex 4 Y-coordinate {m}
    2.850000000000;          !- Vertex 4 Z-coordinate {m}

BuildingSurface:Detailed,
    2B2B70,                  !- Name
    Wall,                    !- Surface Type
    Exterior Wall East,      !- Construction Name
    APTO04_P1,               !- Zone Name
    Outdoors,                !- Outside Boundary Condition
    ,                        !- Outside Boundary Condition Object
    SunExposed,              !- Sun Exposure
    WindExposed,             !- Wind Exposure
    ,                        !- View Factor to Ground
    4,                       !- Number of Vertices
    15.800000000000,         !- Vertex 1 X-coordinate {m}
    -0.950000000000,         !- Vertex 1 Y-coordinate {m}
    2.850000000000,          !- Vertex 1 Z-coordinate {m}
    15.800000000000,         !- Vertex 2 X-coordinate {m}
    -0.950000000000,         !- Vertex 2 Y-coordinate {m}
    0.000000000000,          !- Vertex 2 Z-coordinate {m}
    15.800000000000,         !- Vertex 3 X-coordinate {m}
    0.000000000000,          !- Vertex 3 Y-coordinate {m}
    0.000000000000,          !- Vertex 3 Z-coordinate {m}
    15.800000000000,         !- Vertex 4 X-coordinate {m}
    0.000000000000,          !- Vertex 4 Y-coordinate {m}
    2.850000000000;          !- Vertex 4 Z-coordinate {m}

BuildingSurface:Detailed,
    FA2B7B,                  !- Name
    Wall,                    !- Surface Type
    Exterior Wall North,     !- Construction Name
    APTO04_P1,               !- Zone Name
    Outdoors,                !- Outside Boundary Condition
    ,                        !- Outside Boundary Condition Object
    SunExposed,              !- Sun Exposure
    WindExposed,             !- Wind Exposure
    ,                        !- View Factor to Ground
    4,                       !- Number of Vertices
    17.150000000000,         !- Vertex 1 X-coordinate {m}
    -0.950000000000,         !- Vertex 1 Y-coordinate {m}
    2.850000000000,          !- Vertex 1 Z-coordinate {m}
    17.150000000000,         !- Vertex 2 X-coordinate {m}
    -0.950000000000,         !- Vertex 2 Y-coordinate {m}
    0.000000000000,          !- Vertex 2 Z-coordinate {m}
    15.800000000000,         !- Vertex 3 X-coordinate {m}
    -0.950000000000,         !- Vertex 3 Y-coordinate {m}
    0.000000000000,          !- Vertex 3 Z-coordinate {m}
    15.800000000000,         !- Vertex 4 X-coordinate {m}
    -0.950000000000,         !- Vertex 4 Y-coordinate {m}
    2.850000000000;          !- Vertex 4 Z-coordinate {m}

BuildingSurface:Detailed,
    7D377E,                  !- Name
    Wall,                    !- Surface Type
    Exterior Wall East,      !- Construction Name
    APTO04_P1,               !- Zone Name
    Outdoors,                !- Outside Boundary Condition
    ,                        !- Outside Boundary Condition Object
    SunExposed,              !- Sun Exposure
    WindExposed,             !- Wind Exposure
    ,                        !- View Factor to Ground
    4,                       !- Number of Vertices
    17.150000000000,         !- Vertex 1 X-coordinate {m}
    -6.750000000000,         !- Vertex 1 Y-coordinate {m}
    2.850000000000,          !- Vertex 1 Z-coordinate {m}
    17.150000000000,         !- Vertex 2 X-coordinate {m}
    -6.750000000000,         !- Vertex 2 Y-coordinate {m}
    0.000000000000,          !- Vertex 2 Z-coordinate {m}
    17.150000000000,         !- Vertex 3 X-coordinate {m}
    -0.950000000000,         !- Vertex 3 Y-coordinate {m}
    0.000000000000,          !- Vertex 3 Z-coordinate {m}
    17.150000000000,         !- Vertex 4 X-coordinate {m}
    -0.950000000000,         !- Vertex 4 Y-coordinate {m}
    2.850000000000;          !- Vertex 4 Z-coordinate {m}

BuildingSurface:Detailed,
    1E9817,                  !- Name
    Wall,                    !- Surface Type
    Exterior Wall South,     !- Construction Name
    APTO04_P1,               !- Zone Name
    Outdoors,                !- Outside Boundary Condition
    ,                        !- Outside Boundary Condition Object
    SunExposed,              !- Sun Exposure
    WindExposed,             !- Wind Exposure
    ,                        !- View Factor to Ground
    4,                       !- Number of Vertices
    11.350000000000,         !- Vertex 1 X-coordinate {m}
    -6.750000000000,         !- Vertex 1 Y-coordinate {m}
    2.850000000000,          !- Vertex 1 Z-coordinate {m}
    11.350000000000,         !- Vertex 2 X-coordinate {m}
    -6.750000000000,         !- Vertex 2 Y-coordinate {m}
    0.000000000000,          !- Vertex 2 Z-coordinate {m}
    17.150000000000,         !- Vertex 3 X-coordinate {m}
    -6.750000000000,         !- Vertex 3 Y-coordinate {m}
    0.000000000000,          !- Vertex 3 Z-coordinate {m}
    17.150000000000,         !- Vertex 4 X-coordinate {m}
    -6.750000000000,         !- Vertex 4 Y-coordinate {m}
    2.850000000000;          !- Vertex 4 Z-coordinate {m}

BuildingSurface:Detailed,
    6E564B,                  !- Name
    Wall,                    !- Surface Type
    Exterior Wall West,      !- Construction Name
    APTO04_P1,               !- Zone Name
    Outdoors,                !- Outside Boundary Condition
    ,                        !- Outside Boundary Condition Object
    SunExposed,              !- Sun Exposure
    WindExposed,             !- Wind Exposure
    ,                        !- View Factor to Ground
    4,                       !- Number of Vertices
    11.350000000000,         !- Vertex 1 X-coordinate {m}
    -3.600000000000,         !- Vertex 1 Y-coordinate {m}
    2.850000000000,          !- Vertex 1 Z-coordinate {m}
    11.350000000000,         !- Vertex 2 X-coordinate {m}
    -3.600000000000,         !- Vertex 2 Y-coordinate {m}
    0.000000000000,          !- Vertex 2 Z-coordinate {m}
    11.350000000000,         !- Vertex 3 X-coordinate {m}
    -6.750000000000,         !- Vertex 3 Y-coordinate {m}
    0.000000000000,          !- Vertex 3 Z-coordinate {m}
    11.350000000000,         !- Vertex 4 X-coordinate {m}
    -6.750000000000,         !- Vertex 4 Y-coordinate {m}
    2.850000000000;          !- Vertex 4 Z-coordinate {m}

BuildingSurface:Detailed,
    6CDA64,                  !- Name
    Wall,                    !- Surface Type
    Interior Wall,           !- Construction Name
    APTO04_P1,               !- Zone Name
    Surface,                 !- Outside Boundary Condition
    B31128,                  !- Outside Boundary Condition Object
    NoSun,                   !- Sun Exposure
    NoWind,                  !- Wind Exposure
    ,                        !- View Factor to Ground
    4,                       !- Number of Vertices
    9.700000000000,          !- Vertex 1 X-coordinate {m}
    0.000000000000,          !- Vertex 1 Y-coordinate {m}
    2.850000000000,          !- Vertex 1 Z-coordinate {m}
    9.700000000000,          !- Vertex 2 X-coordinate {m}
    0.000000000000,          !- Vertex 2 Y-coordinate {m}
    0.000000000000,          !- Vertex 2 Z-coordinate {m}
    9.700000000000,          !- Vertex 3 X-coordinate {m}
    -3.600000000000,         !- Vertex 3 Y-coordinate {m}
    0.000000000000,          !- Vertex 3 Z-coordinate {m}
    9.700000000000,          !- Vertex 4 X-coordinate {m}
    -3.600000000000,         !- Vertex 4 Y-coordinate {m}
    2.850000000000;          !- Vertex 4 Z-coordinate {m}

BuildingSurface:Detailed,
    38CE97,                  !- Name
    Wall,                    !- Surface Type
    Exterior Wall South,     !- Construction Name
    APTO04_P1,               !- Zone Name
    Outdoors,                !- Outside Boundary Condition
    ,                        !- Outside Boundary Condition Object
    SunExposed,              !- Sun Exposure
    WindExposed,             !- Wind Exposure
    ,                        !- View Factor to Ground
    4,                       !- Number of Vertices
    9.700000000000,          !- Vertex 1 X-coordinate {m}
    -3.600000000000,         !- Vertex 1 Y-coordinate {m}
    2.850000000000,          !- Vertex 1 Z-coordinate {m}
    9.700000000000,          !- Vertex 2 X-coordinate {m}
    -3.600000000000,         !- Vertex 2 Y-coordinate {m}
    0.000000000000,          !- Vertex 2 Z-coordinate {m}
    11.350000000000,         !- Vertex 3 X-coordinate {m}
    -3.600000000000,         !- Vertex 3 Y-coordinate {m}
    0.000000000000,          !- Vertex 3 Z-coordinate {m}
    11.350000000000,         !- Vertex 4 X-coordinate {m}
    -3.600000000000,         !- Vertex 4 Y-coordinate {m}
    2.850000000000;          !- Vertex 4 Z-coordinate {m}

BuildingSurface:Detailed,
    CF5595,                  !- Name
    Floor,                   !- Surface Type
    Exterior Floor,          !- Construction Name
    CIRCULA_P1,              !- Zone Name
    Ground,                  !- Outside Boundary Condition
    ,                        !- Outside Boundary Condition Object
    NoSun,                   !- Sun Exposure
    NoWind,                  !- Wind Exposure
    ,                        !- View Factor to Ground
    4,                       !- Number of Vertices
    9.700000000000,          !- Vertex 1 X-coordinate {m}
    3.600000000000,          !- Vertex 1 Y-coordinate {m}
    0.000000000000,          !- Vertex 1 Z-coordinate {m}
    9.700000000000,          !- Vertex 2 X-coordinate {m}
    -3.600000000000,         !- Vertex 2 Y-coordinate {m}
    0.000000000000,          !- Vertex 2 Z-coordinate {m}
    7.450000000000,          !- Vertex 3 X-coordinate {m}
    -3.600000000000,         !- Vertex 3 Y-coordinate {m}
    0.000000000000,          !- Vertex 3 Z-coordinate {m}
    7.450000000000,          !- Vertex 4 X-coordinate {m}
    3.600000000000,          !- Vertex 4 Y-coordinate {m}
    0.000000000000;          !- Vertex 4 Z-coordinate {m}

BuildingSurface:Detailed,
    627074,                  !- Name
    Ceiling,                 !- Surface Type
    Interior Ceiling,        !- Construction Name
    CIRCULA_P1,              !- Zone Name
    Surface,                 !- Outside Boundary Condition
    62D25F,                  !- Outside Boundary Condition Object
    NoSun,                   !- Sun Exposure
    NoWind,                  !- Wind Exposure
    ,                        !- View Factor to Ground
    4,                       !- Number of Vertices
    7.450000000000,          !- Vertex 1 X-coordinate {m}
    3.600000000000,          !- Vertex 1 Y-coordinate {m}
    2.850000000000,          !- Vertex 1 Z-coordinate {m}
    7.450000000000,          !- Vertex 2 X-coordinate {m}
    -3.600000000000,         !- Vertex 2 Y-coordinate {m}
    2.850000000000,          !- Vertex 2 Z-coordinate {m}
    9.700000000000,          !- Vertex 3 X-coordinate {m}
    -3.600000000000,         !- Vertex 3 Y-coordinate {m}
    2.850000000000,          !- Vertex 3 Z-coordinate {m}
    9.700000000000,          !- Vertex 4 X-coordinate {m}
    3.600000000000,          !- Vertex 4 Y-coordinate {m}
    2.850000000000;          !- Vertex 4 Z-coordinate {m}

BuildingSurface:Detailed,
    38F7D5,                  !- Name
    Wall,                    !- Surface Type
    Interior Wall,           !- Construction Name
    CIRCULA_P1,              !- Zone Name
    Surface,                 !- Outside Boundary Condition
    56DE11,                  !- Outside Boundary Condition Object
    NoSun,                   !- Sun Exposure
    NoWind,                  !- Wind Exposure
    ,                        !- View Factor to Ground
    4,                       !- Number of Vertices
    7.450000000000,          !- Vertex 1 X-coordinate {m}
    0.000000000000,          !- Vertex 1 Y-coordinate {m}
    2.850000000000,          !- Vertex 1 Z-coordinate {m}
    7.450000000000,          !- Vertex 2 X-coordinate {m}
    0.000000000000,          !- Vertex 2 Y-coordinate {m}
    0.000000000000,          !- Vertex 2 Z-coordinate {m}
    7.450000000000,          !- Vertex 3 X-coordinate {m}
    -3.600000000000,         !- Vertex 3 Y-coordinate {m}
    0.000000000000,          !- Vertex 3 Z-coordinate {m}
    7.450000000000,          !- Vertex 4 X-coordinate {m}
    -3.600000000000,         !- Vertex 4 Y-coordinate {m}
    2.850000000000;          !- Vertex 4 Z-coordinate {m}

BuildingSurface:Detailed,
    2B027A,                  !- Name
    Wall,                    !- Surface Type
    Interior Wall,           !- Construction Name
    CIRCULA_P1,              !- Zone Name
    Surface,                 !- Outside Boundary Condition
    65AC26,                  !- Outside Boundary Condition Object
    NoSun,                   !- Sun Exposure
    NoWind,                  !- Wind Exposure
    ,                        !- View Factor to Ground
    4,                       !- Number of Vertices
    9.700000000000,          !- Vertex 1 X-coordinate {m}
    0.000000000000,          !- Vertex 1 Y-coordinate {m}
    2.850000000000,          !- Vertex 1 Z-coordinate {m}
    9.700000000000,          !- Vertex 2 X-coordinate {m}
    0.000000000000,          !- Vertex 2 Y-coordinate {m}
    0.000000000000,          !- Vertex 2 Z-coordinate {m}
    9.700000000000,          !- Vertex 3 X-coordinate {m}
    3.600000000000,          !- Vertex 3 Y-coordinate {m}
    0.000000000000,          !- Vertex 3 Z-coordinate {m}
    9.700000000000,          !- Vertex 4 X-coordinate {m}
    3.600000000000,          !- Vertex 4 Y-coordinate {m}
    2.850000000000;          !- Vertex 4 Z-coordinate {m}

BuildingSurface:Detailed,
    B634BD,                  !- Name
    Wall,                    !- Surface Type
    Exterior Wall South,     !- Construction Name
    CIRCULA_P1,              !- Zone Name
    Outdoors,                !- Outside Boundary Condition
    ,                        !- Outside Boundary Condition Object
    SunExposed,              !- Sun Exposure
    WindExposed,             !- Wind Exposure
    ,                        !- View Factor to Ground
    4,                       !- Number of Vertices
    9.700000000000,          !- Vertex 1 X-coordinate {m}
    3.600000000000,          !- Vertex 1 Y-coordinate {m}
    2.850000000000,          !- Vertex 1 Z-coordinate {m}
    9.700000000000,          !- Vertex 2 X-coordinate {m}
    3.600000000000,          !- Vertex 2 Y-coordinate {m}
    0.000000000000,          !- Vertex 2 Z-coordinate {m}
    7.450000000000,          !- Vertex 3 X-coordinate {m}
    3.600000000000,          !- Vertex 3 Y-coordinate {m}
    0.000000000000,          !- Vertex 3 Z-coordinate {m}
    7.450000000000,          !- Vertex 4 X-coordinate {m}
    3.600000000000,          !- Vertex 4 Y-coordinate {m}
    2.850000000000;          !- Vertex 4 Z-coordinate {m}

BuildingSurface:Detailed,
    38765C,                  !- Name
    Wall,                    !- Surface Type
    Exterior Wall North,     !- Construction Name
    CIRCULA_P1,              !- Zone Name
    Outdoors,                !- Outside Boundary Condition
    ,                        !- Outside Boundary Condition Object
    SunExposed,              !- Sun Exposure
    WindExposed,             !- Wind Exposure
    ,                        !- View Factor to Ground
    4,                       !- Number of Vertices
    7.450000000000,          !- Vertex 1 X-coordinate {m}
    -3.600000000000,         !- Vertex 1 Y-coordinate {m}
    2.850000000000,          !- Vertex 1 Z-coordinate {m}
    7.450000000000,          !- Vertex 2 X-coordinate {m}
    -3.600000000000,         !- Vertex 2 Y-coordinate {m}
    0.000000000000,          !- Vertex 2 Z-coordinate {m}
    9.700000000000,          !- Vertex 3 X-coordinate {m}
    -3.600000000000,         !- Vertex 3 Y-coordinate {m}
    0.000000000000,          !- Vertex 3 Z-coordinate {m}
    9.700000000000,          !- Vertex 4 X-coordinate {m}
    -3.600000000000,         !- Vertex 4 Y-coordinate {m}
    2.850000000000;          !- Vertex 4 Z-coordinate {m}

BuildingSurface:Detailed,
    13F810,                  !- Name
    Wall,                    !- Surface Type
    Interior Wall,           !- Construction Name
    CIRCULA_P1,              !- Zone Name
    Surface,                 !- Outside Boundary Condition
    5EB753,                  !- Outside Boundary Condition Object
    NoSun,                   !- Sun Exposure
    NoWind,                  !- Wind Exposure
    ,                        !- View Factor to Ground
    4,                       !- Number of Vertices
    7.450000000000,          !- Vertex 1 X-coordinate {m}
    3.600000000000,          !- Vertex 1 Y-coordinate {m}
    2.850000000000,          !- Vertex 1 Z-coordinate {m}
    7.450000000000,          !- Vertex 2 X-coordinate {m}
    3.600000000000,          !- Vertex 2 Y-coordinate {m}
    0.000000000000,          !- Vertex 2 Z-coordinate {m}
    7.450000000000,          !- Vertex 3 X-coordinate {m}
    0.000000000000,          !- Vertex 3 Y-coordinate {m}
    0.000000000000,          !- Vertex 3 Z-coordinate {m}
    7.450000000000,          !- Vertex 4 X-coordinate {m}
    0.000000000000,          !- Vertex 4 Y-coordinate {m}
    2.850000000000;          !- Vertex 4 Z-coordinate {m}

BuildingSurface:Detailed,
    B31128,                  !- Name
    Wall,                    !- Surface Type
    Interior Wall,           !- Construction Name
    CIRCULA_P1,              !- Zone Name
    Surface,                 !- Outside Boundary Condition
    6CDA64,                  !- Outside Boundary Condition Object
    NoSun,                   !- Sun Exposure
    NoWind,                  !- Wind Exposure
    ,                        !- View Factor to Ground
    4,                       !- Number of Vertices
    9.700000000000,          !- Vertex 1 X-coordinate {m}
    -3.600000000000,         !- Vertex 1 Y-coordinate {m}
    2.850000000000,          !- Vertex 1 Z-coordinate {m}
    9.700000000000,          !- Vertex 2 X-coordinate {m}
    -3.600000000000,         !- Vertex 2 Y-coordinate {m}
    0.000000000000,          !- Vertex 2 Z-coordinate {m}
    9.700000000000,          !- Vertex 3 X-coordinate {m}
    0.000000000000,          !- Vertex 3 Y-coordinate {m}
    0.000000000000,          !- Vertex 3 Z-coordinate {m}
    9.700000000000,          !- Vertex 4 X-coordinate {m}
    0.000000000000,          !- Vertex 4 Y-coordinate {m}
    2.850000000000;          !- Vertex 4 Z-coordinate {m}

BuildingSurface:Detailed,
    46EB6F,                  !- Name
    Floor,                   !- Surface Type
    Interior Floor,          !- Construction Name
    APTO03_P2,               !- Zone Name
    Surface,                 !- Outside Boundary Condition
    433A49,                  !- Outside Boundary Condition Object
    NoSun,                   !- Sun Exposure
    NoWind,                  !- Wind Exposure
    ,                        !- View Factor to Ground
    8,                       !- Number of Vertices
    17.150000000000,         !- Vertex 1 X-coordinate {m}
    6.750000000000,          !- Vertex 1 Y-coordinate {m}
    2.850000000000,          !- Vertex 1 Z-coordinate {m}
    17.150000000000,         !- Vertex 2 X-coordinate {m}
    0.950000000000,          !- Vertex 2 Y-coordinate {m}
    2.850000000000,          !- Vertex 2 Z-coordinate {m}
    15.800000000000,         !- Vertex 3 X-coordinate {m}
    0.950000000000,          !- Vertex 3 Y-coordinate {m}
    2.850000000000,          !- Vertex 3 Z-coordinate {m}
    15.800000000000,         !- Vertex 4 X-coordinate {m}
    0.000000000000,          !- Vertex 4 Y-coordinate {m}
    2.850000000000,          !- Vertex 4 Z-coordinate {m}
    9.700000000000,          !- Vertex 5 X-coordinate {m}
    0.000000000000,          !- Vertex 5 Y-coordinate {m}
    2.850000000000,          !- Vertex 5 Z-coordinate {m}
    9.700000000000,          !- Vertex 6 X-coordinate {m}
    3.600000000000,          !- Vertex 6 Y-coordinate {m}
    2.850000000000,          !- Vertex 6 Z-coordinate {m}
    11.350000000000,         !- Vertex 7 X-coordinate {m}
    3.600000000000,          !- Vertex 7 Y-coordinate {m}
    2.850000000000,          !- Vertex 7 Z-coordinate {m}
    11.350000000000,         !- Vertex 8 X-coordinate {m}
    6.750000000000,          !- Vertex 8 Y-coordinate {m}
    2.850000000000;          !- Vertex 8 Z-coordinate {m}

BuildingSurface:Detailed,
    2E819A,                  !- Name
    Ceiling,                 !- Surface Type
    Interior Ceiling,        !- Construction Name
    APTO03_P2,               !- Zone Name
    Surface,                 !- Outside Boundary Condition
    E02C26,                  !- Outside Boundary Condition Object
    NoSun,                   !- Sun Exposure
    NoWind,                  !- Wind Exposure
    ,                        !- View Factor to Ground
    8,                       !- Number of Vertices
    11.350000000000,         !- Vertex 1 X-coordinate {m}
    6.750000000000,          !- Vertex 1 Y-coordinate {m}
    5.700000000000,          !- Vertex 1 Z-coordinate {m}
    11.350000000000,         !- Vertex 2 X-coordinate {m}
    3.600000000000,          !- Vertex 2 Y-coordinate {m}
    5.700000000000,          !- Vertex 2 Z-coordinate {m}
    9.700000000000,          !- Vertex 3 X-coordinate {m}
    3.600000000000,          !- Vertex 3 Y-coordinate {m}
    5.700000000000,          !- Vertex 3 Z-coordinate {m}
    9.700000000000,          !- Vertex 4 X-coordinate {m}
    0.000000000000,          !- Vertex 4 Y-coordinate {m}
    5.700000000000,          !- Vertex 4 Z-coordinate {m}
    15.800000000000,         !- Vertex 5 X-coordinate {m}
    0.000000000000,          !- Vertex 5 Y-coordinate {m}
    5.700000000000,          !- Vertex 5 Z-coordinate {m}
    15.800000000000,         !- Vertex 6 X-coordinate {m}
    0.950000000000,          !- Vertex 6 Y-coordinate {m}
    5.700000000000,          !- Vertex 6 Z-coordinate {m}
    17.150000000000,         !- Vertex 7 X-coordinate {m}
    0.950000000000,          !- Vertex 7 Y-coordinate {m}
    5.700000000000,          !- Vertex 7 Z-coordinate {m}
    17.150000000000,         !- Vertex 8 X-coordinate {m}
    6.750000000000,          !- Vertex 8 Y-coordinate {m}
    5.700000000000;          !- Vertex 8 Z-coordinate {m}

BuildingSurface:Detailed,
    EFE35E,                  !- Name
    Wall,                    !- Surface Type
    Interior Wall,           !- Construction Name
    APTO03_P2,               !- Zone Name
    Surface,                 !- Outside Boundary Condition
    C03F39,                  !- Outside Boundary Condition Object
    NoSun,                   !- Sun Exposure
    NoWind,                  !- Wind Exposure
    ,                        !- View Factor to Ground
    4,                       !- Number of Vertices
    9.700000000000,          !- Vertex 1 X-coordinate {m}
    3.600000000000,          !- Vertex 1 Y-coordinate {m}
    5.700000000000,          !- Vertex 1 Z-coordinate {m}
    9.700000000000,          !- Vertex 2 X-coordinate {m}
    3.600000000000,          !- Vertex 2 Y-coordinate {m}
    2.850000000000,          !- Vertex 2 Z-coordinate {m}
    9.700000000000,          !- Vertex 3 X-coordinate {m}
    0.000000000000,          !- Vertex 3 Y-coordinate {m}
    2.850000000000,          !- Vertex 3 Z-coordinate {m}
    9.700000000000,          !- Vertex 4 X-coordinate {m}
    0.000000000000,          !- Vertex 4 Y-coordinate {m}
    5.700000000000;          !- Vertex 4 Z-coordinate {m}

BuildingSurface:Detailed,
    106BCA,                  !- Name
    Wall,                    !- Surface Type
    Exterior Wall North,     !- Construction Name
    APTO03_P2,               !- Zone Name
    Outdoors,                !- Outside Boundary Condition
    ,                        !- Outside Boundary Condition Object
    SunExposed,              !- Sun Exposure
    WindExposed,             !- Wind Exposure
    ,                        !- View Factor to Ground
    4,                       !- Number of Vertices
    11.350000000000,         !- Vertex 1 X-coordinate {m}
    3.600000000000,          !- Vertex 1 Y-coordinate {m}
    5.700000000000,          !- Vertex 1 Z-coordinate {m}
    11.350000000000,         !- Vertex 2 X-coordinate {m}
    3.600000000000,          !- Vertex 2 Y-coordinate {m}
    2.850000000000,          !- Vertex 2 Z-coordinate {m}
    9.700000000000,          !- Vertex 3 X-coordinate {m}
    3.600000000000,          !- Vertex 3 Y-coordinate {m}
    2.850000000000,          !- Vertex 3 Z-coordinate {m}
    9.700000000000,          !- Vertex 4 X-coordinate {m}
    3.600000000000,          !- Vertex 4 Y-coordinate {m}
    5.700000000000;          !- Vertex 4 Z-coordinate {m}

BuildingSurface:Detailed,
    F75825,                  !- Name
    Wall,                    !- Surface Type
    Exterior Wall West,      !- Construction Name
    APTO03_P2,               !- Zone Name
    Outdoors,                !- Outside Boundary Condition
    ,                        !- Outside Boundary Condition Object
    SunExposed,              !- Sun Exposure
    WindExposed,             !- Wind Exposure
    ,                        !- View Factor to Ground
    4,                       !- Number of Vertices
    11.350000000000,         !- Vertex 1 X-coordinate {m}
    6.750000000000,          !- Vertex 1 Y-coordinate {m}
    5.700000000000,          !- Vertex 1 Z-coordinate {m}
    11.350000000000,         !- Vertex 2 X-coordinate {m}
    6.750000000000,          !- Vertex 2 Y-coordinate {m}
    2.850000000000,          !- Vertex 2 Z-coordinate {m}
    11.350000000000,         !- Vertex 3 X-coordinate {m}
    3.600000000000,          !- Vertex 3 Y-coordinate {m}
    2.850000000000,          !- Vertex 3 Z-coordinate {m}
    11.350000000000,         !- Vertex 4 X-coordinate {m}
    3.600000000000,          !- Vertex 4 Y-coordinate {m}
    5.700000000000;          !- Vertex 4 Z-coordinate {m}

BuildingSurface:Detailed,
    6467CA,                  !- Name
    Wall,                    !- Surface Type
    Exterior Wall North,     !- Construction Name
    APTO03_P2,               !- Zone Name
    Outdoors,                !- Outside Boundary Condition
    ,                        !- Outside Boundary Condition Object
    SunExposed,              !- Sun Exposure
    WindExposed,             !- Wind Exposure
    ,                        !- View Factor to Ground
    4,                       !- Number of Vertices
    17.150000000000,         !- Vertex 1 X-coordinate {m}
    6.750000000000,          !- Vertex 1 Y-coordinate {m}
    5.700000000000,          !- Vertex 1 Z-coordinate {m}
    17.150000000000,         !- Vertex 2 X-coordinate {m}
    6.750000000000,          !- Vertex 2 Y-coordinate {m}
    2.850000000000,          !- Vertex 2 Z-coordinate {m}
    11.350000000000,         !- Vertex 3 X-coordinate {m}
    6.750000000000,          !- Vertex 3 Y-coordinate {m}
    2.850000000000,          !- Vertex 3 Z-coordinate {m}
    11.350000000000,         !- Vertex 4 X-coordinate {m}
    6.750000000000,          !- Vertex 4 Y-coordinate {m}
    5.700000000000;          !- Vertex 4 Z-coordinate {m}

BuildingSurface:Detailed,
    A0550D,                  !- Name
    Wall,                    !- Surface Type
    Exterior Wall East,      !- Construction Name
    APTO03_P2,               !- Zone Name
    Outdoors,                !- Outside Boundary Condition
    ,                        !- Outside Boundary Condition Object
    SunExposed,              !- Sun Exposure
    WindExposed,             !- Wind Exposure
    ,                        !- View Factor to Ground
    4,                       !- Number of Vertices
    17.150000000000,         !- Vertex 1 X-coordinate {m}
    0.950000000000,          !- Vertex 1 Y-coordinate {m}
    5.700000000000,          !- Vertex 1 Z-coordinate {m}
    17.150000000000,         !- Vertex 2 X-coordinate {m}
    0.950000000000,          !- Vertex 2 Y-coordinate {m}
    2.850000000000,          !- Vertex 2 Z-coordinate {m}
    17.150000000000,         !- Vertex 3 X-coordinate {m}
    6.750000000000,          !- Vertex 3 Y-coordinate {m}
    2.850000000000,          !- Vertex 3 Z-coordinate {m}
    17.150000000000,         !- Vertex 4 X-coordinate {m}
    6.750000000000,          !- Vertex 4 Y-coordinate {m}
    5.700000000000;          !- Vertex 4 Z-coordinate {m}

BuildingSurface:Detailed,
    D6AC5F,                  !- Name
    Wall,                    !- Surface Type
    Exterior Wall South,     !- Construction Name
    APTO03_P2,               !- Zone Name
    Outdoors,                !- Outside Boundary Condition
    ,                        !- Outside Boundary Condition Object
    SunExposed,              !- Sun Exposure
    WindExposed,             !- Wind Exposure
    ,                        !- View Factor to Ground
    4,                       !- Number of Vertices
    15.800000000000,         !- Vertex 1 X-coordinate {m}
    0.950000000000,          !- Vertex 1 Y-coordinate {m}
    5.700000000000,          !- Vertex 1 Z-coordinate {m}
    15.800000000000,         !- Vertex 2 X-coordinate {m}
    0.950000000000,          !- Vertex 2 Y-coordinate {m}
    2.850000000000,          !- Vertex 2 Z-coordinate {m}
    17.150000000000,         !- Vertex 3 X-coordinate {m}
    0.950000000000,          !- Vertex 3 Y-coordinate {m}
    2.850000000000,          !- Vertex 3 Z-coordinate {m}
    17.150000000000,         !- Vertex 4 X-coordinate {m}
    0.950000000000,          !- Vertex 4 Y-coordinate {m}
    5.700000000000;          !- Vertex 4 Z-coordinate {m}

BuildingSurface:Detailed,
    70C585,                  !- Name
    Wall,                    !- Surface Type
    Exterior Wall East,      !- Construction Name
    APTO03_P2,               !- Zone Name
    Outdoors,                !- Outside Boundary Condition
    ,                        !- Outside Boundary Condition Object
    SunExposed,              !- Sun Exposure
    WindExposed,             !- Wind Exposure
    ,                        !- View Factor to Ground
    4,                       !- Number of Vertices
    15.800000000000,         !- Vertex 1 X-coordinate {m}
    0.000000000000,          !- Vertex 1 Y-coordinate {m}
    5.700000000000,          !- Vertex 1 Z-coordinate {m}
    15.800000000000,         !- Vertex 2 X-coordinate {m}
    0.000000000000,          !- Vertex 2 Y-coordinate {m}
    2.850000000000,          !- Vertex 2 Z-coordinate {m}
    15.800000000000,         !- Vertex 3 X-coordinate {m}
    0.950000000000,          !- Vertex 3 Y-coordinate {m}
    2.850000000000,          !- Vertex 3 Z-coordinate {m}
    15.800000000000,         !- Vertex 4 X-coordinate {m}
    0.950000000000,          !- Vertex 4 Y-coordinate {m}
    5.700000000000;          !- Vertex 4 Z-coordinate {m}

BuildingSurface:Detailed,
    7C3F22,                  !- Name
    Wall,                    !- Surface Type
    Interior Wall,           !- Construction Name
    APTO03_P2,               !- Zone Name
    Surface,                 !- Outside Boundary Condition
    B376B4,                  !- Outside Boundary Condition Object
    NoSun,                   !- Sun Exposure
    NoWind,                  !- Wind Exposure
    ,                        !- View Factor to Ground
    4,                       !- Number of Vertices
    9.700000000000,          !- Vertex 1 X-coordinate {m}
    0.000000000000,          !- Vertex 1 Y-coordinate {m}
    5.700000000000,          !- Vertex 1 Z-coordinate {m}
    9.700000000000,          !- Vertex 2 X-coordinate {m}
    0.000000000000,          !- Vertex 2 Y-coordinate {m}
    2.850000000000,          !- Vertex 2 Z-coordinate {m}
    15.800000000000,         !- Vertex 3 X-coordinate {m}
    0.000000000000,          !- Vertex 3 Y-coordinate {m}
    2.850000000000,          !- Vertex 3 Z-coordinate {m}
    15.800000000000,         !- Vertex 4 X-coordinate {m}
    0.000000000000,          !- Vertex 4 Y-coordinate {m}
    5.700000000000;          !- Vertex 4 Z-coordinate {m}

BuildingSurface:Detailed,
    499869,                  !- Name
    Floor,                   !- Surface Type
    Interior Floor,          !- Construction Name
    APTO04_P2,               !- Zone Name
    Surface,                 !- Outside Boundary Condition
    C11558,                  !- Outside Boundary Condition Object
    NoSun,                   !- Sun Exposure
    NoWind,                  !- Wind Exposure
    ,                        !- View Factor to Ground
    8,                       !- Number of Vertices
    15.800000000000,         !- Vertex 1 X-coordinate {m}
    0.000000000000,          !- Vertex 1 Y-coordinate {m}
    2.850000000000,          !- Vertex 1 Z-coordinate {m}
    15.800000000000,         !- Vertex 2 X-coordinate {m}
    -0.950000000000,         !- Vertex 2 Y-coordinate {m}
    2.850000000000,          !- Vertex 2 Z-coordinate {m}
    17.150000000000,         !- Vertex 3 X-coordinate {m}
    -0.950000000000,         !- Vertex 3 Y-coordinate {m}
    2.850000000000,          !- Vertex 3 Z-coordinate {m}
    17.150000000000,         !- Vertex 4 X-coordinate {m}
    -6.750000000000,         !- Vertex 4 Y-coordinate {m}
    2.850000000000,          !- Vertex 4 Z-coordinate {m}
    11.350000000000,         !- Vertex 5 X-coordinate {m}
    -6.750000000000,         !- Vertex 5 Y-coordinate {m}
    2.850000000000,          !- Vertex 5 Z-coordinate {m}
    11.350000000000,         !- Vertex 6 X-coordinate {m}
    -3.600000000000,         !- Vertex 6 Y-coordinate {m}
    2.850000000000,          !- Vertex 6 Z-coordinate {m}
    9.700000000000,          !- Vertex 7 X-coordinate {m}
    -3.600000000000,         !- Vertex 7 Y-coordinate {m}
    2.850000000000,          !- Vertex 7 Z-coordinate {m}
    9.700000000000,          !- Vertex 8 X-coordinate {m}
    0.000000000000,          !- Vertex 8 Y-coordinate {m}
    2.850000000000;          !- Vertex 8 Z-coordinate {m}

BuildingSurface:Detailed,
    B15176,                  !- Name
    Ceiling,                 !- Surface Type
    Interior Ceiling,        !- Construction Name
    APTO04_P2,               !- Zone Name
    Surface,                 !- Outside Boundary Condition
    C26B29,                  !- Outside Boundary Condition Object
    NoSun,                   !- Sun Exposure
    NoWind,                  !- Wind Exposure
    ,                        !- View Factor to Ground
    8,                       !- Number of Vertices
    9.700000000000,          !- Vertex 1 X-coordinate {m}
    0.000000000000,          !- Vertex 1 Y-coordinate {m}
    5.700000000000,          !- Vertex 1 Z-coordinate {m}
    9.700000000000,          !- Vertex 2 X-coordinate {m}
    -3.600000000000,         !- Vertex 2 Y-coordinate {m}
    5.700000000000,          !- Vertex 2 Z-coordinate {m}
    11.350000000000,         !- Vertex 3 X-coordinate {m}
    -3.600000000000,         !- Vertex 3 Y-coordinate {m}
    5.700000000000,          !- Vertex 3 Z-coordinate {m}
    11.350000000000,         !- Vertex 4 X-coordinate {m}
    -6.750000000000,         !- Vertex 4 Y-coordinate {m}
    5.700000000000,          !- Vertex 4 Z-coordinate {m}
    17.150000000000,         !- Vertex 5 X-coordinate {m}
    -6.750000000000,         !- Vertex 5 Y-coordinate {m}
    5.700000000000,          !- Vertex 5 Z-coordinate {m}
    17.150000000000,         !- Vertex 6 X-coordinate {m}
    -0.950000000000,         !- Vertex 6 Y-coordinate {m}
    5.700000000000,          !- Vertex 6 Z-coordinate {m}
    15.800000000000,         !- Vertex 7 X-coordinate {m}
    -0.950000000000,         !- Vertex 7 Y-coordinate {m}
    5.700000000000,          !- Vertex 7 Z-coordinate {m}
    15.800000000000,         !- Vertex 8 X-coordinate {m}
    0.000000000000,          !- Vertex 8 Y-coordinate {m}
    5.700000000000;          !- Vertex 8 Z-coordinate {m}

BuildingSurface:Detailed,
    B376B4,                  !- Name
    Wall,                    !- Surface Type
    Interior Wall,           !- Construction Name
    APTO04_P2,               !- Zone Name
    Surface,                 !- Outside Boundary Condition
    7C3F22,                  !- Outside Boundary Condition Object
    NoSun,                   !- Sun Exposure
    NoWind,                  !- Wind Exposure
    ,                        !- View Factor to Ground
    4,                       !- Number of Vertices
    15.800000000000,         !- Vertex 1 X-coordinate {m}
    0.000000000000,          !- Vertex 1 Y-coordinate {m}
    5.700000000000,          !- Vertex 1 Z-coordinate {m}
    15.800000000000,         !- Vertex 2 X-coordinate {m}
    0.000000000000,          !- Vertex 2 Y-coordinate {m}
    2.850000000000,          !- Vertex 2 Z-coordinate {m}
    9.700000000000,          !- Vertex 3 X-coordinate {m}
    0.000000000000,          !- Vertex 3 Y-coordinate {m}
    2.850000000000,          !- Vertex 3 Z-coordinate {m}
    9.700000000000,          !- Vertex 4 X-coordinate {m}
    0.000000000000,          !- Vertex 4 Y-coordinate {m}
    5.700000000000;          !- Vertex 4 Z-coordinate {m}

BuildingSurface:Detailed,
    2A7B38,                  !- Name
    Wall,                    !- Surface Type
    Exterior Wall East,      !- Construction Name
    APTO04_P2,               !- Zone Name
    Outdoors,                !- Outside Boundary Condition
    ,                        !- Outside Boundary Condition Object
    SunExposed,              !- Sun Exposure
    WindExposed,             !- Wind Exposure
    ,                        !- View Factor to Ground
    4,                       !- Number of Vertices
    15.800000000000,         !- Vertex 1 X-coordinate {m}
    -0.950000000000,         !- Vertex 1 Y-coordinate {m}
    5.700000000000,          !- Vertex 1 Z-coordinate {m}
    15.800000000000,         !- Vertex 2 X-coordinate {m}
    -0.950000000000,         !- Vertex 2 Y-coordinate {m}
    2.850000000000,          !- Vertex 2 Z-coordinate {m}
    15.800000000000,         !- Vertex 3 X-coordinate {m}
    0.000000000000,          !- Vertex 3 Y-coordinate {m}
    2.850000000000,          !- Vertex 3 Z-coordinate {m}
    15.800000000000,         !- Vertex 4 X-coordinate {m}
    0.000000000000,          !- Vertex 4 Y-coordinate {m}
    5.700000000000;          !- Vertex 4 Z-coordinate {m}

BuildingSurface:Detailed,
    E6927A,                  !- Name
    Wall,                    !- Surface Type
    Exterior Wall North,     !- Construction Name
    APTO04_P2,               !- Zone Name
    Outdoors,                !- Outside Boundary Condition
    ,                        !- Outside Boundary Condition Object
    SunExposed,              !- Sun Exposure
    WindExposed,             !- Wind Exposure
    ,                        !- View Factor to Ground
    4,                       !- Number of Vertices
    17.150000000000,         !- Vertex 1 X-coordinate {m}
    -0.950000000000,         !- Vertex 1 Y-coordinate {m}
    5.700000000000,          !- Vertex 1 Z-coordinate {m}
    17.150000000000,         !- Vertex 2 X-coordinate {m}
    -0.950000000000,         !- Vertex 2 Y-coordinate {m}
    2.850000000000,          !- Vertex 2 Z-coordinate {m}
    15.800000000000,         !- Vertex 3 X-coordinate {m}
    -0.950000000000,         !- Vertex 3 Y-coordinate {m}
    2.850000000000,          !- Vertex 3 Z-coordinate {m}
    15.800000000000,         !- Vertex 4 X-coordinate {m}
    -0.950000000000,         !- Vertex 4 Y-coordinate {m}
    5.700000000000;          !- Vertex 4 Z-coordinate {m}

BuildingSurface:Detailed,
    27672A,                  !- Name
    Wall,                    !- Surface Type
    Exterior Wall East,      !- Construction Name
    APTO04_P2,               !- Zone Name
    Outdoors,                !- Outside Boundary Condition
    ,                        !- Outside Boundary Condition Object
    SunExposed,              !- Sun Exposure
    WindExposed,             !- Wind Exposure
    ,                        !- View Factor to Ground
    4,                       !- Number of Vertices
    17.150000000000,         !- Vertex 1 X-coordinate {m}
    -6.750000000000,         !- Vertex 1 Y-coordinate {m}
    5.700000000000,          !- Vertex 1 Z-coordinate {m}
    17.150000000000,         !- Vertex 2 X-coordinate {m}
    -6.750000000000,         !- Vertex 2 Y-coordinate {m}
    2.850000000000,          !- Vertex 2 Z-coordinate {m}
    17.150000000000,         !- Vertex 3 X-coordinate {m}
    -0.950000000000,         !- Vertex 3 Y-coordinate {m}
    2.850000000000,          !- Vertex 3 Z-coordinate {m}
    17.150000000000,         !- Vertex 4 X-coordinate {m}
    -0.950000000000,         !- Vertex 4 Y-coordinate {m}
    5.700000000000;          !- Vertex 4 Z-coordinate {m}

BuildingSurface:Detailed,
    85B4B0,                  !- Name
    Wall,                    !- Surface Type
    Exterior Wall South,     !- Construction Name
    APTO04_P2,               !- Zone Name
    Outdoors,                !- Outside Boundary Condition
    ,                        !- Outside Boundary Condition Object
    SunExposed,              !- Sun Exposure
    WindExposed,             !- Wind Exposure
    ,                        !- View Factor to Ground
    4,                       !- Number of Vertices
    11.350000000000,         !- Vertex 1 X-coordinate {m}
    -6.750000000000,         !- Vertex 1 Y-coordinate {m}
    5.700000000000,          !- Vertex 1 Z-coordinate {m}
    11.350000000000,         !- Vertex 2 X-coordinate {m}
    -6.750000000000,         !- Vertex 2 Y-coordinate {m}
    2.850000000000,          !- Vertex 2 Z-coordinate {m}
    17.150000000000,         !- Vertex 3 X-coordinate {m}
    -6.750000000000,         !- Vertex 3 Y-coordinate {m}
    2.850000000000,          !- Vertex 3 Z-coordinate {m}
    17.150000000000,         !- Vertex 4 X-coordinate {m}
    -6.750000000000,         !- Vertex 4 Y-coordinate {m}
    5.700000000000;          !- Vertex 4 Z-coordinate {m}

BuildingSurface:Detailed,
    EB7B69,                  !- Name
    Wall,                    !- Surface Type
    Exterior Wall West,      !- Construction Name
    APTO04_P2,               !- Zone Name
    Outdoors,                !- Outside Boundary Condition
    ,                        !- Outside Boundary Condition Object
    SunExposed,              !- Sun Exposure
    WindExposed,             !- Wind Exposure
    ,                        !- View Factor to Ground
    4,                       !- Number of Vertices
    11.350000000000,         !- Vertex 1 X-coordinate {m}
    -3.600000000000,         !- Vertex 1 Y-coordinate {m}
    5.700000000000,          !- Vertex 1 Z-coordinate {m}
    11.350000000000,         !- Vertex 2 X-coordinate {m}
    -3.600000000000,         !- Vertex 2 Y-coordinate {m}
    2.850000000000,          !- Vertex 2 Z-coordinate {m}
    11.350000000000,         !- Vertex 3 X-coordinate {m}
    -6.750000000000,         !- Vertex 3 Y-coordinate {m}
    2.850000000000,          !- Vertex 3 Z-coordinate {m}
    11.350000000000,         !- Vertex 4 X-coordinate {m}
    -6.750000000000,         !- Vertex 4 Y-coordinate {m}
    5.700000000000;          !- Vertex 4 Z-coordinate {m}

BuildingSurface:Detailed,
    DEFB3B,                  !- Name
    Wall,                    !- Surface Type
    Interior Wall,           !- Construction Name
    APTO04_P2,               !- Zone Name
    Surface,                 !- Outside Boundary Condition
    76A5B8,                  !- Outside Boundary Condition Object
    NoSun,                   !- Sun Exposure
    NoWind,                  !- Wind Exposure
    ,                        !- View Factor to Ground
    4,                       !- Number of Vertices
    9.700000000000,          !- Vertex 1 X-coordinate {m}
    0.000000000000,          !- Vertex 1 Y-coordinate {m}
    5.700000000000,          !- Vertex 1 Z-coordinate {m}
    9.700000000000,          !- Vertex 2 X-coordinate {m}
    0.000000000000,          !- Vertex 2 Y-coordinate {m}
    2.850000000000,          !- Vertex 2 Z-coordinate {m}
    9.700000000000,          !- Vertex 3 X-coordinate {m}
    -3.600000000000,         !- Vertex 3 Y-coordinate {m}
    2.850000000000,          !- Vertex 3 Z-coordinate {m}
    9.700000000000,          !- Vertex 4 X-coordinate {m}
    -3.600000000000,         !- Vertex 4 Y-coordinate {m}
    5.700000000000;          !- Vertex 4 Z-coordinate {m}

BuildingSurface:Detailed,
    6E210F,                  !- Name
    Wall,                    !- Surface Type
    Exterior Wall South,     !- Construction Name
    APTO04_P2,               !- Zone Name
    Outdoors,                !- Outside Boundary Condition
    ,                        !- Outside Boundary Condition Object
    SunExposed,              !- Sun Exposure
    WindExposed,             !- Wind Exposure
    ,                        !- View Factor to Ground
    4,                       !- Number of Vertices
    9.700000000000,          !- Vertex 1 X-coordinate {m}
    -3.600000000000,         !- Vertex 1 Y-coordinate {m}
    5.700000000000,          !- Vertex 1 Z-coordinate {m}
    9.700000000000,          !- Vertex 2 X-coordinate {m}
    -3.600000000000,         !- Vertex 2 Y-coordinate {m}
    2.850000000000,          !- Vertex 2 Z-coordinate {m}
    11.350000000000,         !- Vertex 3 X-coordinate {m}
    -3.600000000000,         !- Vertex 3 Y-coordinate {m}
    2.850000000000,          !- Vertex 3 Z-coordinate {m}
    11.350000000000,         !- Vertex 4 X-coordinate {m}
    -3.600000000000,         !- Vertex 4 Y-coordinate {m}
    5.700000000000;          !- Vertex 4 Z-coordinate {m}

BuildingSurface:Detailed,
    BA20AD,                  !- Name
    Ceiling,                 !- Surface Type
    Interior Ceiling,        !- Construction Name
    APTO02_P2,               !- Zone Name
    Surface,                 !- Outside Boundary Condition
    CD9CF1,                  !- Outside Boundary Condition Object
    NoSun,                   !- Sun Exposure
    NoWind,                  !- Wind Exposure
    ,                        !- View Factor to Ground
    8,                       !- Number of Vertices
    0.000000000000,          !- Vertex 1 X-coordinate {m}
    6.750000000000,          !- Vertex 1 Y-coordinate {m}
    5.700000000000,          !- Vertex 1 Z-coordinate {m}
    0.000000000000,          !- Vertex 2 X-coordinate {m}
    0.950000000000,          !- Vertex 2 Y-coordinate {m}
    5.700000000000,          !- Vertex 2 Z-coordinate {m}
    1.350000000000,          !- Vertex 3 X-coordinate {m}
    0.950000000000,          !- Vertex 3 Y-coordinate {m}
    5.700000000000,          !- Vertex 3 Z-coordinate {m}
    1.350000000000,          !- Vertex 4 X-coordinate {m}
    0.000000000000,          !- Vertex 4 Y-coordinate {m}
    5.700000000000,          !- Vertex 4 Z-coordinate {m}
    7.450000000000,          !- Vertex 5 X-coordinate {m}
    0.000000000000,          !- Vertex 5 Y-coordinate {m}
    5.700000000000,          !- Vertex 5 Z-coordinate {m}
    7.450000000000,          !- Vertex 6 X-coordinate {m}
    3.600000000000,          !- Vertex 6 Y-coordinate {m}
    5.700000000000,          !- Vertex 6 Z-coordinate {m}
    5.800000000000,          !- Vertex 7 X-coordinate {m}
    3.600000000000,          !- Vertex 7 Y-coordinate {m}
    5.700000000000,          !- Vertex 7 Z-coordinate {m}
    5.800000000000,          !- Vertex 8 X-coordinate {m}
    6.750000000000,          !- Vertex 8 Y-coordinate {m}
    5.700000000000;          !- Vertex 8 Z-coordinate {m}

BuildingSurface:Detailed,
    FAF5D7,                  !- Name
    Wall,                    !- Surface Type
    Interior Wall,           !- Construction Name
    APTO02_P2,               !- Zone Name
    Surface,                 !- Outside Boundary Condition
    C6E09D,                  !- Outside Boundary Condition Object
    NoSun,                   !- Sun Exposure
    NoWind,                  !- Wind Exposure
    ,                        !- View Factor to Ground
    4,                       !- Number of Vertices
    1.350000000000,          !- Vertex 1 X-coordinate {m}
    0.000000000000,          !- Vertex 1 Y-coordinate {m}
    5.700000000000,          !- Vertex 1 Z-coordinate {m}
    1.350000000000,          !- Vertex 2 X-coordinate {m}
    0.000000000000,          !- Vertex 2 Y-coordinate {m}
    2.850000000000,          !- Vertex 2 Z-coordinate {m}
    7.450000000000,          !- Vertex 3 X-coordinate {m}
    0.000000000000,          !- Vertex 3 Y-coordinate {m}
    2.850000000000,          !- Vertex 3 Z-coordinate {m}
    7.450000000000,          !- Vertex 4 X-coordinate {m}
    0.000000000000,          !- Vertex 4 Y-coordinate {m}
    5.700000000000;          !- Vertex 4 Z-coordinate {m}

BuildingSurface:Detailed,
    3864D8,                  !- Name
    Wall,                    !- Surface Type
    Exterior Wall North,     !- Construction Name
    APTO02_P2,               !- Zone Name
    Outdoors,                !- Outside Boundary Condition
    ,                        !- Outside Boundary Condition Object
    SunExposed,              !- Sun Exposure
    WindExposed,             !- Wind Exposure
    ,                        !- View Factor to Ground
    4,                       !- Number of Vertices
    5.800000000000,          !- Vertex 1 X-coordinate {m}
    6.750000000000,          !- Vertex 1 Y-coordinate {m}
    5.700000000000,          !- Vertex 1 Z-coordinate {m}
    5.800000000000,          !- Vertex 2 X-coordinate {m}
    6.750000000000,          !- Vertex 2 Y-coordinate {m}
    2.850000000000,          !- Vertex 2 Z-coordinate {m}
    0.000000000000,          !- Vertex 3 X-coordinate {m}
    6.750000000000,          !- Vertex 3 Y-coordinate {m}
    2.850000000000,          !- Vertex 3 Z-coordinate {m}
    0.000000000000,          !- Vertex 4 X-coordinate {m}
    6.750000000000,          !- Vertex 4 Y-coordinate {m}
    5.700000000000;          !- Vertex 4 Z-coordinate {m}

BuildingSurface:Detailed,
    16B9ED,                  !- Name
    Wall,                    !- Surface Type
    Exterior Wall West,      !- Construction Name
    APTO02_P2,               !- Zone Name
    Outdoors,                !- Outside Boundary Condition
    ,                        !- Outside Boundary Condition Object
    SunExposed,              !- Sun Exposure
    WindExposed,             !- Wind Exposure
    ,                        !- View Factor to Ground
    4,                       !- Number of Vertices
    1.350000000000,          !- Vertex 1 X-coordinate {m}
    0.950000000000,          !- Vertex 1 Y-coordinate {m}
    5.700000000000,          !- Vertex 1 Z-coordinate {m}
    1.350000000000,          !- Vertex 2 X-coordinate {m}
    0.950000000000,          !- Vertex 2 Y-coordinate {m}
    2.850000000000,          !- Vertex 2 Z-coordinate {m}
    1.350000000000,          !- Vertex 3 X-coordinate {m}
    0.000000000000,          !- Vertex 3 Y-coordinate {m}
    2.850000000000,          !- Vertex 3 Z-coordinate {m}
    1.350000000000,          !- Vertex 4 X-coordinate {m}
    0.000000000000,          !- Vertex 4 Y-coordinate {m}
    5.700000000000;          !- Vertex 4 Z-coordinate {m}

BuildingSurface:Detailed,
    742013,                  !- Name
    Wall,                    !- Surface Type
    Exterior Wall North,     !- Construction Name
    APTO02_P2,               !- Zone Name
    Outdoors,                !- Outside Boundary Condition
    ,                        !- Outside Boundary Condition Object
    SunExposed,              !- Sun Exposure
    WindExposed,             !- Wind Exposure
    ,                        !- View Factor to Ground
    4,                       !- Number of Vertices
    7.450000000000,          !- Vertex 1 X-coordinate {m}
    3.600000000000,          !- Vertex 1 Y-coordinate {m}
    5.700000000000,          !- Vertex 1 Z-coordinate {m}
    7.450000000000,          !- Vertex 2 X-coordinate {m}
    3.600000000000,          !- Vertex 2 Y-coordinate {m}
    2.850000000000,          !- Vertex 2 Z-coordinate {m}
    5.800000000000,          !- Vertex 3 X-coordinate {m}
    3.600000000000,          !- Vertex 3 Y-coordinate {m}
    2.850000000000,          !- Vertex 3 Z-coordinate {m}
    5.800000000000,          !- Vertex 4 X-coordinate {m}
    3.600000000000,          !- Vertex 4 Y-coordinate {m}
    5.700000000000;          !- Vertex 4 Z-coordinate {m}

BuildingSurface:Detailed,
    D007C6,                  !- Name
    Wall,                    !- Surface Type
    Exterior Wall East,      !- Construction Name
    APTO02_P2,               !- Zone Name
    Outdoors,                !- Outside Boundary Condition
    ,                        !- Outside Boundary Condition Object
    SunExposed,              !- Sun Exposure
    WindExposed,             !- Wind Exposure
    ,                        !- View Factor to Ground
    4,                       !- Number of Vertices
    5.800000000000,          !- Vertex 1 X-coordinate {m}
    3.600000000000,          !- Vertex 1 Y-coordinate {m}
    5.700000000000,          !- Vertex 1 Z-coordinate {m}
    5.800000000000,          !- Vertex 2 X-coordinate {m}
    3.600000000000,          !- Vertex 2 Y-coordinate {m}
    2.850000000000,          !- Vertex 2 Z-coordinate {m}
    5.800000000000,          !- Vertex 3 X-coordinate {m}
    6.750000000000,          !- Vertex 3 Y-coordinate {m}
    2.850000000000,          !- Vertex 3 Z-coordinate {m}
    5.800000000000,          !- Vertex 4 X-coordinate {m}
    6.750000000000,          !- Vertex 4 Y-coordinate {m}
    5.700000000000;          !- Vertex 4 Z-coordinate {m}

BuildingSurface:Detailed,
    79E4EE,                  !- Name
    Wall,                    !- Surface Type
    Interior Wall,           !- Construction Name
    APTO02_P2,               !- Zone Name
    Surface,                 !- Outside Boundary Condition
    812283,                  !- Outside Boundary Condition Object
    NoSun,                   !- Sun Exposure
    NoWind,                  !- Wind Exposure
    ,                        !- View Factor to Ground
    4,                       !- Number of Vertices
    7.450000000000,          !- Vertex 1 X-coordinate {m}
    0.000000000000,          !- Vertex 1 Y-coordinate {m}
    5.700000000000,          !- Vertex 1 Z-coordinate {m}
    7.450000000000,          !- Vertex 2 X-coordinate {m}
    0.000000000000,          !- Vertex 2 Y-coordinate {m}
    2.850000000000,          !- Vertex 2 Z-coordinate {m}
    7.450000000000,          !- Vertex 3 X-coordinate {m}
    3.600000000000,          !- Vertex 3 Y-coordinate {m}
    2.850000000000,          !- Vertex 3 Z-coordinate {m}
    7.450000000000,          !- Vertex 4 X-coordinate {m}
    3.600000000000,          !- Vertex 4 Y-coordinate {m}
    5.700000000000;          !- Vertex 4 Z-coordinate {m}

BuildingSurface:Detailed,
    9BA552,                  !- Name
    Wall,                    !- Surface Type
    Exterior Wall South,     !- Construction Name
    APTO02_P2,               !- Zone Name
    Outdoors,                !- Outside Boundary Condition
    ,                        !- Outside Boundary Condition Object
    SunExposed,              !- Sun Exposure
    WindExposed,             !- Wind Exposure
    ,                        !- View Factor to Ground
    4,                       !- Number of Vertices
    0.000000000000,          !- Vertex 1 X-coordinate {m}
    0.950000000000,          !- Vertex 1 Y-coordinate {m}
    5.700000000000,          !- Vertex 1 Z-coordinate {m}
    0.000000000000,          !- Vertex 2 X-coordinate {m}
    0.950000000000,          !- Vertex 2 Y-coordinate {m}
    2.850000000000,          !- Vertex 2 Z-coordinate {m}
    1.350000000000,          !- Vertex 3 X-coordinate {m}
    0.950000000000,          !- Vertex 3 Y-coordinate {m}
    2.850000000000,          !- Vertex 3 Z-coordinate {m}
    1.350000000000,          !- Vertex 4 X-coordinate {m}
    0.950000000000,          !- Vertex 4 Y-coordinate {m}
    5.700000000000;          !- Vertex 4 Z-coordinate {m}

BuildingSurface:Detailed,
    7F597A,                  !- Name
    Wall,                    !- Surface Type
    Exterior Wall West,      !- Construction Name
    APTO02_P2,               !- Zone Name
    Outdoors,                !- Outside Boundary Condition
    ,                        !- Outside Boundary Condition Object
    SunExposed,              !- Sun Exposure
    WindExposed,             !- Wind Exposure
    ,                        !- View Factor to Ground
    4,                       !- Number of Vertices
    0.000000000000,          !- Vertex 1 X-coordinate {m}
    6.750000000000,          !- Vertex 1 Y-coordinate {m}
    5.700000000000,          !- Vertex 1 Z-coordinate {m}
    0.000000000000,          !- Vertex 2 X-coordinate {m}
    6.750000000000,          !- Vertex 2 Y-coordinate {m}
    2.850000000000,          !- Vertex 2 Z-coordinate {m}
    0.000000000000,          !- Vertex 3 X-coordinate {m}
    0.950000000000,          !- Vertex 3 Y-coordinate {m}
    2.850000000000,          !- Vertex 3 Z-coordinate {m}
    0.000000000000,          !- Vertex 4 X-coordinate {m}
    0.950000000000,          !- Vertex 4 Y-coordinate {m}
    5.700000000000;          !- Vertex 4 Z-coordinate {m}

BuildingSurface:Detailed,
    C308F5,                  !- Name
    Floor,                   !- Surface Type
    Interior Floor,          !- Construction Name
    APTO02_P2,               !- Zone Name
    Surface,                 !- Outside Boundary Condition
    A1838E,                  !- Outside Boundary Condition Object
    NoSun,                   !- Sun Exposure
    NoWind,                  !- Wind Exposure
    ,                        !- View Factor to Ground
    8,                       !- Number of Vertices
    5.800000000000,          !- Vertex 1 X-coordinate {m}
    6.750000000000,          !- Vertex 1 Y-coordinate {m}
    2.850000000000,          !- Vertex 1 Z-coordinate {m}
    5.800000000000,          !- Vertex 2 X-coordinate {m}
    3.600000000000,          !- Vertex 2 Y-coordinate {m}
    2.850000000000,          !- Vertex 2 Z-coordinate {m}
    7.450000000000,          !- Vertex 3 X-coordinate {m}
    3.600000000000,          !- Vertex 3 Y-coordinate {m}
    2.850000000000,          !- Vertex 3 Z-coordinate {m}
    7.450000000000,          !- Vertex 4 X-coordinate {m}
    0.000000000000,          !- Vertex 4 Y-coordinate {m}
    2.850000000000,          !- Vertex 4 Z-coordinate {m}
    1.350000000000,          !- Vertex 5 X-coordinate {m}
    0.000000000000,          !- Vertex 5 Y-coordinate {m}
    2.850000000000,          !- Vertex 5 Z-coordinate {m}
    1.350000000000,          !- Vertex 6 X-coordinate {m}
    0.950000000000,          !- Vertex 6 Y-coordinate {m}
    2.850000000000,          !- Vertex 6 Z-coordinate {m}
    0.000000000000,          !- Vertex 7 X-coordinate {m}
    0.950000000000,          !- Vertex 7 Y-coordinate {m}
    2.850000000000,          !- Vertex 7 Z-coordinate {m}
    0.000000000000,          !- Vertex 8 X-coordinate {m}
    6.750000000000,          !- Vertex 8 Y-coordinate {m}
    2.850000000000;          !- Vertex 8 Z-coordinate {m}

BuildingSurface:Detailed,
    62D25F,                  !- Name
    Floor,                   !- Surface Type
    Interior Floor,          !- Construction Name
    CIRCULA_P2,              !- Zone Name
    Surface,                 !- Outside Boundary Condition
    627074,                  !- Outside Boundary Condition Object
    NoSun,                   !- Sun Exposure
    NoWind,                  !- Wind Exposure
    ,                        !- View Factor to Ground
    4,                       !- Number of Vertices
    9.700000000000,          !- Vertex 1 X-coordinate {m}
    3.600000000000,          !- Vertex 1 Y-coordinate {m}
    2.850000000000,          !- Vertex 1 Z-coordinate {m}
    9.700000000000,          !- Vertex 2 X-coordinate {m}
    -3.600000000000,         !- Vertex 2 Y-coordinate {m}
    2.850000000000,          !- Vertex 2 Z-coordinate {m}
    7.450000000000,          !- Vertex 3 X-coordinate {m}
    -3.600000000000,         !- Vertex 3 Y-coordinate {m}
    2.850000000000,          !- Vertex 3 Z-coordinate {m}
    7.450000000000,          !- Vertex 4 X-coordinate {m}
    3.600000000000,          !- Vertex 4 Y-coordinate {m}
    2.850000000000;          !- Vertex 4 Z-coordinate {m}

BuildingSurface:Detailed,
    703817,                  !- Name
    Ceiling,                 !- Surface Type
    Interior Ceiling,        !- Construction Name
    CIRCULA_P2,              !- Zone Name
    Surface,                 !- Outside Boundary Condition
    493E75,                  !- Outside Boundary Condition Object
    NoSun,                   !- Sun Exposure
    NoWind,                  !- Wind Exposure
    ,                        !- View Factor to Ground
    4,                       !- Number of Vertices
    7.450000000000,          !- Vertex 1 X-coordinate {m}
    3.600000000000,          !- Vertex 1 Y-coordinate {m}
    5.700000000000,          !- Vertex 1 Z-coordinate {m}
    7.450000000000,          !- Vertex 2 X-coordinate {m}
    -3.600000000000,         !- Vertex 2 Y-coordinate {m}
    5.700000000000,          !- Vertex 2 Z-coordinate {m}
    9.700000000000,          !- Vertex 3 X-coordinate {m}
    -3.600000000000,         !- Vertex 3 Y-coordinate {m}
    5.700000000000,          !- Vertex 3 Z-coordinate {m}
    9.700000000000,          !- Vertex 4 X-coordinate {m}
    3.600000000000,          !- Vertex 4 Y-coordinate {m}
    5.700000000000;          !- Vertex 4 Z-coordinate {m}

BuildingSurface:Detailed,
    C03F39,                  !- Name
    Wall,                    !- Surface Type
    Interior Wall,           !- Construction Name
    CIRCULA_P2,              !- Zone Name
    Surface,                 !- Outside Boundary Condition
    EFE35E,                  !- Outside Boundary Condition Object
    NoSun,                   !- Sun Exposure
    NoWind,                  !- Wind Exposure
    ,                        !- View Factor to Ground
    4,                       !- Number of Vertices
    9.700000000000,          !- Vertex 1 X-coordinate {m}
    0.000000000000,          !- Vertex 1 Y-coordinate {m}
    5.700000000000,          !- Vertex 1 Z-coordinate {m}
    9.700000000000,          !- Vertex 2 X-coordinate {m}
    0.000000000000,          !- Vertex 2 Y-coordinate {m}
    2.850000000000,          !- Vertex 2 Z-coordinate {m}
    9.700000000000,          !- Vertex 3 X-coordinate {m}
    3.600000000000,          !- Vertex 3 Y-coordinate {m}
    2.850000000000,          !- Vertex 3 Z-coordinate {m}
    9.700000000000,          !- Vertex 4 X-coordinate {m}
    3.600000000000,          !- Vertex 4 Y-coordinate {m}
    5.700000000000;          !- Vertex 4 Z-coordinate {m}

BuildingSurface:Detailed,
    B99166,                  !- Name
    Wall,                    !- Surface Type
    Exterior Wall North,     !- Construction Name
    CIRCULA_P2,              !- Zone Name
    Outdoors,                !- Outside Boundary Condition
    ,                        !- Outside Boundary Condition Object
    SunExposed,              !- Sun Exposure
    WindExposed,             !- Wind Exposure
    ,                        !- View Factor to Ground
    4,                       !- Number of Vertices
    7.450000000000,          !- Vertex 1 X-coordinate {m}
    -3.600000000000,         !- Vertex 1 Y-coordinate {m}
    5.700000000000,          !- Vertex 1 Z-coordinate {m}
    7.450000000000,          !- Vertex 2 X-coordinate {m}
    -3.600000000000,         !- Vertex 2 Y-coordinate {m}
    2.850000000000,          !- Vertex 2 Z-coordinate {m}
    9.700000000000,          !- Vertex 3 X-coordinate {m}
    -3.600000000000,         !- Vertex 3 Y-coordinate {m}
    2.850000000000,          !- Vertex 3 Z-coordinate {m}
    9.700000000000,          !- Vertex 4 X-coordinate {m}
    -3.600000000000,         !- Vertex 4 Y-coordinate {m}
    5.700000000000;          !- Vertex 4 Z-coordinate {m}

BuildingSurface:Detailed,
    F668AD,                  !- Name
    Wall,                    !- Surface Type
    Interior Wall,           !- Construction Name
    CIRCULA_P2,              !- Zone Name
    Surface,                 !- Outside Boundary Condition
    E260F0,                  !- Outside Boundary Condition Object
    NoSun,                   !- Sun Exposure
    NoWind,                  !- Wind Exposure
    ,                        !- View Factor to Ground
    4,                       !- Number of Vertices
    7.450000000000,          !- Vertex 1 X-coordinate {m}
    0.000000000000,          !- Vertex 1 Y-coordinate {m}
    5.700000000000,          !- Vertex 1 Z-coordinate {m}
    7.450000000000,          !- Vertex 2 X-coordinate {m}
    0.000000000000,          !- Vertex 2 Y-coordinate {m}
    2.850000000000,          !- Vertex 2 Z-coordinate {m}
    7.450000000000,          !- Vertex 3 X-coordinate {m}
    -3.600000000000,         !- Vertex 3 Y-coordinate {m}
    2.850000000000,          !- Vertex 3 Z-coordinate {m}
    7.450000000000,          !- Vertex 4 X-coordinate {m}
    -3.600000000000,         !- Vertex 4 Y-coordinate {m}
    5.700000000000;          !- Vertex 4 Z-coordinate {m}

BuildingSurface:Detailed,
    832736,                  !- Name
    Wall,                    !- Surface Type
    Exterior Wall South,     !- Construction Name
    CIRCULA_P2,              !- Zone Name
    Outdoors,                !- Outside Boundary Condition
    ,                        !- Outside Boundary Condition Object
    SunExposed,              !- Sun Exposure
    WindExposed,             !- Wind Exposure
    ,                        !- View Factor to Ground
    4,                       !- Number of Vertices
    9.700000000000,          !- Vertex 1 X-coordinate {m}
    3.600000000000,          !- Vertex 1 Y-coordinate {m}
    5.700000000000,          !- Vertex 1 Z-coordinate {m}
    9.700000000000,          !- Vertex 2 X-coordinate {m}
    3.600000000000,          !- Vertex 2 Y-coordinate {m}
    2.850000000000,          !- Vertex 2 Z-coordinate {m}
    7.450000000000,          !- Vertex 3 X-coordinate {m}
    3.600000000000,          !- Vertex 3 Y-coordinate {m}
    2.850000000000,          !- Vertex 3 Z-coordinate {m}
    7.450000000000,          !- Vertex 4 X-coordinate {m}
    3.600000000000,          !- Vertex 4 Y-coordinate {m}
    5.700000000000;          !- Vertex 4 Z-coordinate {m}

BuildingSurface:Detailed,
    812283,                  !- Name
    Wall,                    !- Surface Type
    Interior Wall,           !- Construction Name
    CIRCULA_P2,              !- Zone Name
    Surface,                 !- Outside Boundary Condition
    79E4EE,                  !- Outside Boundary Condition Object
    NoSun,                   !- Sun Exposure
    NoWind,                  !- Wind Exposure
    ,                        !- View Factor to Ground
    4,                       !- Number of Vertices
    7.450000000000,          !- Vertex 1 X-coordinate {m}
    3.600000000000,          !- Vertex 1 Y-coordinate {m}
    5.700000000000,          !- Vertex 1 Z-coordinate {m}
    7.450000000000,          !- Vertex 2 X-coordinate {m}
    3.600000000000,          !- Vertex 2 Y-coordinate {m}
    2.850000000000,          !- Vertex 2 Z-coordinate {m}
    7.450000000000,          !- Vertex 3 X-coordinate {m}
    0.000000000000,          !- Vertex 3 Y-coordinate {m}
    2.850000000000,          !- Vertex 3 Z-coordinate {m}
    7.450000000000,          !- Vertex 4 X-coordinate {m}
    0.000000000000,          !- Vertex 4 Y-coordinate {m}
    5.700000000000;          !- Vertex 4 Z-coordinate {m}

BuildingSurface:Detailed,
    76A5B8,                  !- Name
    Wall,                    !- Surface Type
    Interior Wall,           !- Construction Name
    CIRCULA_P2,              !- Zone Name
    Surface,                 !- Outside Boundary Condition
    DEFB3B,                  !- Outside Boundary Condition Object
    NoSun,                   !- Sun Exposure
    NoWind,                  !- Wind Exposure
    ,                        !- View Factor to Ground
    4,                       !- Number of Vertices
    9.700000000000,          !- Vertex 1 X-coordinate {m}
    -3.600000000000,         !- Vertex 1 Y-coordinate {m}
    5.700000000000,          !- Vertex 1 Z-coordinate {m}
    9.700000000000,          !- Vertex 2 X-coordinate {m}
    -3.600000000000,         !- Vertex 2 Y-coordinate {m}
    2.850000000000,          !- Vertex 2 Z-coordinate {m}
    9.700000000000,          !- Vertex 3 X-coordinate {m}
    0.000000000000,          !- Vertex 3 Y-coordinate {m}
    2.850000000000,          !- Vertex 3 Z-coordinate {m}
    9.700000000000,          !- Vertex 4 X-coordinate {m}
    0.000000000000,          !- Vertex 4 Y-coordinate {m}
    5.700000000000;          !- Vertex 4 Z-coordinate {m}

BuildingSurface:Detailed,
    998974,                  !- Name
    Wall,                    !- Surface Type
    Exterior Wall South,     !- Construction Name
    APTO01_P2,               !- Zone Name
    Outdoors,                !- Outside Boundary Condition
    ,                        !- Outside Boundary Condition Object
    SunExposed,              !- Sun Exposure
    WindExposed,             !- Wind Exposure
    ,                        !- View Factor to Ground
    4,                       !- Number of Vertices
    5.800000000000,          !- Vertex 1 X-coordinate {m}
    -3.600000000000,         !- Vertex 1 Y-coordinate {m}
    5.700000000000,          !- Vertex 1 Z-coordinate {m}
    5.800000000000,          !- Vertex 2 X-coordinate {m}
    -3.600000000000,         !- Vertex 2 Y-coordinate {m}
    2.850000000000,          !- Vertex 2 Z-coordinate {m}
    7.450000000000,          !- Vertex 3 X-coordinate {m}
    -3.600000000000,         !- Vertex 3 Y-coordinate {m}
    2.850000000000,          !- Vertex 3 Z-coordinate {m}
    7.450000000000,          !- Vertex 4 X-coordinate {m}
    -3.600000000000,         !- Vertex 4 Y-coordinate {m}
    5.700000000000;          !- Vertex 4 Z-coordinate {m}

BuildingSurface:Detailed,
    2FA705,                  !- Name
    Wall,                    !- Surface Type
    Exterior Wall South,     !- Construction Name
    APTO01_P2,               !- Zone Name
    Outdoors,                !- Outside Boundary Condition
    ,                        !- Outside Boundary Condition Object
    SunExposed,              !- Sun Exposure
    WindExposed,             !- Wind Exposure
    ,                        !- View Factor to Ground
    4,                       !- Number of Vertices
    0.000000000000,          !- Vertex 1 X-coordinate {m}
    -6.750000000000,         !- Vertex 1 Y-coordinate {m}
    5.700000000000,          !- Vertex 1 Z-coordinate {m}
    0.000000000000,          !- Vertex 2 X-coordinate {m}
    -6.750000000000,         !- Vertex 2 Y-coordinate {m}
    2.850000000000,          !- Vertex 2 Z-coordinate {m}
    5.800000000000,          !- Vertex 3 X-coordinate {m}
    -6.750000000000,         !- Vertex 3 Y-coordinate {m}
    2.850000000000,          !- Vertex 3 Z-coordinate {m}
    5.800000000000,          !- Vertex 4 X-coordinate {m}
    -6.750000000000,         !- Vertex 4 Y-coordinate {m}
    5.700000000000;          !- Vertex 4 Z-coordinate {m}

BuildingSurface:Detailed,
    E260F0,                  !- Name
    Wall,                    !- Surface Type
    Interior Wall,           !- Construction Name
    APTO01_P2,               !- Zone Name
    Surface,                 !- Outside Boundary Condition
    F668AD,                  !- Outside Boundary Condition Object
    NoSun,                   !- Sun Exposure
    NoWind,                  !- Wind Exposure
    ,                        !- View Factor to Ground
    4,                       !- Number of Vertices
    7.450000000000,          !- Vertex 1 X-coordinate {m}
    -3.600000000000,         !- Vertex 1 Y-coordinate {m}
    5.700000000000,          !- Vertex 1 Z-coordinate {m}
    7.450000000000,          !- Vertex 2 X-coordinate {m}
    -3.600000000000,         !- Vertex 2 Y-coordinate {m}
    2.850000000000,          !- Vertex 2 Z-coordinate {m}
    7.450000000000,          !- Vertex 3 X-coordinate {m}
    0.000000000000,          !- Vertex 3 Y-coordinate {m}
    2.850000000000,          !- Vertex 3 Z-coordinate {m}
    7.450000000000,          !- Vertex 4 X-coordinate {m}
    0.000000000000,          !- Vertex 4 Y-coordinate {m}
    5.700000000000;          !- Vertex 4 Z-coordinate {m}

BuildingSurface:Detailed,
    F6610B,                  !- Name
    Wall,                    !- Surface Type
    Exterior Wall North,     !- Construction Name
    APTO01_P2,               !- Zone Name
    Outdoors,                !- Outside Boundary Condition
    ,                        !- Outside Boundary Condition Object
    SunExposed,              !- Sun Exposure
    WindExposed,             !- Wind Exposure
    ,                        !- View Factor to Ground
    4,                       !- Number of Vertices
    1.350000000000,          !- Vertex 1 X-coordinate {m}
    -0.950000000000,         !- Vertex 1 Y-coordinate {m}
    5.700000000000,          !- Vertex 1 Z-coordinate {m}
    1.350000000000,          !- Vertex 2 X-coordinate {m}
    -0.950000000000,         !- Vertex 2 Y-coordinate {m}
    2.850000000000,          !- Vertex 2 Z-coordinate {m}
    0.000000000000,          !- Vertex 3 X-coordinate {m}
    -0.950000000000,         !- Vertex 3 Y-coordinate {m}
    2.850000000000,          !- Vertex 3 Z-coordinate {m}
    0.000000000000,          !- Vertex 4 X-coordinate {m}
    -0.950000000000,         !- Vertex 4 Y-coordinate {m}
    5.700000000000;          !- Vertex 4 Z-coordinate {m}

BuildingSurface:Detailed,
    4C3C42,                  !- Name
    Ceiling,                 !- Surface Type
    Interior Ceiling,        !- Construction Name
    APTO01_P2,               !- Zone Name
    Surface,                 !- Outside Boundary Condition
    2B1DFD,                  !- Outside Boundary Condition Object
    NoSun,                   !- Sun Exposure
    NoWind,                  !- Wind Exposure
    ,                        !- View Factor to Ground
    8,                       !- Number of Vertices
    0.000000000000,          !- Vertex 1 X-coordinate {m}
    -0.950000000000,         !- Vertex 1 Y-coordinate {m}
    5.700000000000,          !- Vertex 1 Z-coordinate {m}
    0.000000000000,          !- Vertex 2 X-coordinate {m}
    -6.750000000000,         !- Vertex 2 Y-coordinate {m}
    5.700000000000,          !- Vertex 2 Z-coordinate {m}
    5.800000000000,          !- Vertex 3 X-coordinate {m}
    -6.750000000000,         !- Vertex 3 Y-coordinate {m}
    5.700000000000,          !- Vertex 3 Z-coordinate {m}
    5.800000000000,          !- Vertex 4 X-coordinate {m}
    -3.600000000000,         !- Vertex 4 Y-coordinate {m}
    5.700000000000,          !- Vertex 4 Z-coordinate {m}
    7.450000000000,          !- Vertex 5 X-coordinate {m}
    -3.600000000000,         !- Vertex 5 Y-coordinate {m}
    5.700000000000,          !- Vertex 5 Z-coordinate {m}
    7.450000000000,          !- Vertex 6 X-coordinate {m}
    0.000000000000,          !- Vertex 6 Y-coordinate {m}
    5.700000000000,          !- Vertex 6 Z-coordinate {m}
    1.350000000000,          !- Vertex 7 X-coordinate {m}
    0.000000000000,          !- Vertex 7 Y-coordinate {m}
    5.700000000000,          !- Vertex 7 Z-coordinate {m}
    1.350000000000,          !- Vertex 8 X-coordinate {m}
    -0.950000000000,         !- Vertex 8 Y-coordinate {m}
    5.700000000000;          !- Vertex 8 Z-coordinate {m}

BuildingSurface:Detailed,
    D864C7,                  !- Name
    Wall,                    !- Surface Type
    Exterior Wall West,      !- Construction Name
    APTO01_P2,               !- Zone Name
    Outdoors,                !- Outside Boundary Condition
    ,                        !- Outside Boundary Condition Object
    SunExposed,              !- Sun Exposure
    WindExposed,             !- Wind Exposure
    ,                        !- View Factor to Ground
    4,                       !- Number of Vertices
    0.000000000000,          !- Vertex 1 X-coordinate {m}
    -0.950000000000,         !- Vertex 1 Y-coordinate {m}
    5.700000000000,          !- Vertex 1 Z-coordinate {m}
    0.000000000000,          !- Vertex 2 X-coordinate {m}
    -0.950000000000,         !- Vertex 2 Y-coordinate {m}
    2.850000000000,          !- Vertex 2 Z-coordinate {m}
    0.000000000000,          !- Vertex 3 X-coordinate {m}
    -6.750000000000,         !- Vertex 3 Y-coordinate {m}
    2.850000000000,          !- Vertex 3 Z-coordinate {m}
    0.000000000000,          !- Vertex 4 X-coordinate {m}
    -6.750000000000,         !- Vertex 4 Y-coordinate {m}
    5.700000000000;          !- Vertex 4 Z-coordinate {m}

BuildingSurface:Detailed,
    E531CB,                  !- Name
    Wall,                    !- Surface Type
    Exterior Wall West,      !- Construction Name
    APTO01_P2,               !- Zone Name
    Outdoors,                !- Outside Boundary Condition
    ,                        !- Outside Boundary Condition Object
    SunExposed,              !- Sun Exposure
    WindExposed,             !- Wind Exposure
    ,                        !- View Factor to Ground
    4,                       !- Number of Vertices
    1.350000000000,          !- Vertex 1 X-coordinate {m}
    0.000000000000,          !- Vertex 1 Y-coordinate {m}
    5.700000000000,          !- Vertex 1 Z-coordinate {m}
    1.350000000000,          !- Vertex 2 X-coordinate {m}
    0.000000000000,          !- Vertex 2 Y-coordinate {m}
    2.850000000000,          !- Vertex 2 Z-coordinate {m}
    1.350000000000,          !- Vertex 3 X-coordinate {m}
    -0.950000000000,         !- Vertex 3 Y-coordinate {m}
    2.850000000000,          !- Vertex 3 Z-coordinate {m}
    1.350000000000,          !- Vertex 4 X-coordinate {m}
    -0.950000000000,         !- Vertex 4 Y-coordinate {m}
    5.700000000000;          !- Vertex 4 Z-coordinate {m}

BuildingSurface:Detailed,
    C6E09D,                  !- Name
    Wall,                    !- Surface Type
    Interior Wall,           !- Construction Name
    APTO01_P2,               !- Zone Name
    Surface,                 !- Outside Boundary Condition
    FAF5D7,                  !- Outside Boundary Condition Object
    NoSun,                   !- Sun Exposure
    NoWind,                  !- Wind Exposure
    ,                        !- View Factor to Ground
    4,                       !- Number of Vertices
    7.450000000000,          !- Vertex 1 X-coordinate {m}
    0.000000000000,          !- Vertex 1 Y-coordinate {m}
    5.700000000000,          !- Vertex 1 Z-coordinate {m}
    7.450000000000,          !- Vertex 2 X-coordinate {m}
    0.000000000000,          !- Vertex 2 Y-coordinate {m}
    2.850000000000,          !- Vertex 2 Z-coordinate {m}
    1.350000000000,          !- Vertex 3 X-coordinate {m}
    0.000000000000,          !- Vertex 3 Y-coordinate {m}
    2.850000000000,          !- Vertex 3 Z-coordinate {m}
    1.350000000000,          !- Vertex 4 X-coordinate {m}
    0.000000000000,          !- Vertex 4 Y-coordinate {m}
    5.700000000000;          !- Vertex 4 Z-coordinate {m}

BuildingSurface:Detailed,
    CF2656,                  !- Name
    Floor,                   !- Surface Type
    Interior Floor,          !- Construction Name
    APTO01_P2,               !- Zone Name
    Surface,                 !- Outside Boundary Condition
    21A2D4,                  !- Outside Boundary Condition Object
    NoSun,                   !- Sun Exposure
    NoWind,                  !- Wind Exposure
    ,                        !- View Factor to Ground
    8,                       !- Number of Vertices
    7.450000000000,          !- Vertex 1 X-coordinate {m}
    0.000000000000,          !- Vertex 1 Y-coordinate {m}
    2.850000000000,          !- Vertex 1 Z-coordinate {m}
    7.450000000000,          !- Vertex 2 X-coordinate {m}
    -3.600000000000,         !- Vertex 2 Y-coordinate {m}
    2.850000000000,          !- Vertex 2 Z-coordinate {m}
    5.800000000000,          !- Vertex 3 X-coordinate {m}
    -3.600000000000,         !- Vertex 3 Y-coordinate {m}
    2.850000000000,          !- Vertex 3 Z-coordinate {m}
    5.800000000000,          !- Vertex 4 X-coordinate {m}
    -6.750000000000,         !- Vertex 4 Y-coordinate {m}
    2.850000000000,          !- Vertex 4 Z-coordinate {m}
    0.000000000000,          !- Vertex 5 X-coordinate {m}
    -6.750000000000,         !- Vertex 5 Y-coordinate {m}
    2.850000000000,          !- Vertex 5 Z-coordinate {m}
    0.000000000000,          !- Vertex 6 X-coordinate {m}
    -0.950000000000,         !- Vertex 6 Y-coordinate {m}
    2.850000000000,          !- Vertex 6 Z-coordinate {m}
    1.350000000000,          !- Vertex 7 X-coordinate {m}
    -0.950000000000,         !- Vertex 7 Y-coordinate {m}
    2.850000000000,          !- Vertex 7 Z-coordinate {m}
    1.350000000000,          !- Vertex 8 X-coordinate {m}
    0.000000000000,          !- Vertex 8 Y-coordinate {m}
    2.850000000000;          !- Vertex 8 Z-coordinate {m}

BuildingSurface:Detailed,
    A69D4A,                  !- Name
    Wall,                    !- Surface Type
    Exterior Wall East,      !- Construction Name
    APTO01_P2,               !- Zone Name
    Outdoors,                !- Outside Boundary Condition
    ,                        !- Outside Boundary Condition Object
    SunExposed,              !- Sun Exposure
    WindExposed,             !- Wind Exposure
    ,                        !- View Factor to Ground
    4,                       !- Number of Vertices
    5.800000000000,          !- Vertex 1 X-coordinate {m}
    -6.750000000000,         !- Vertex 1 Y-coordinate {m}
    5.700000000000,          !- Vertex 1 Z-coordinate {m}
    5.800000000000,          !- Vertex 2 X-coordinate {m}
    -6.750000000000,         !- Vertex 2 Y-coordinate {m}
    2.850000000000,          !- Vertex 2 Z-coordinate {m}
    5.800000000000,          !- Vertex 3 X-coordinate {m}
    -3.600000000000,         !- Vertex 3 Y-coordinate {m}
    2.850000000000,          !- Vertex 3 Z-coordinate {m}
    5.800000000000,          !- Vertex 4 X-coordinate {m}
    -3.600000000000,         !- Vertex 4 Y-coordinate {m}
    5.700000000000;          !- Vertex 4 Z-coordinate {m}

BuildingSurface:Detailed,
    493E75,                  !- Name
    Floor,                   !- Surface Type
    Interior Floor,          !- Construction Name
    CIRCULA_P3,              !- Zone Name
    Surface,                 !- Outside Boundary Condition
    703817,                  !- Outside Boundary Condition Object
    NoSun,                   !- Sun Exposure
    NoWind,                  !- Wind Exposure
    ,                        !- View Factor to Ground
    4,                       !- Number of Vertices
    9.700000000000,          !- Vertex 1 X-coordinate {m}
    3.600000000000,          !- Vertex 1 Y-coordinate {m}
    5.700000000000,          !- Vertex 1 Z-coordinate {m}
    9.700000000000,          !- Vertex 2 X-coordinate {m}
    -3.600000000000,         !- Vertex 2 Y-coordinate {m}
    5.700000000000,          !- Vertex 2 Z-coordinate {m}
    7.450000000000,          !- Vertex 3 X-coordinate {m}
    -3.600000000000,         !- Vertex 3 Y-coordinate {m}
    5.700000000000,          !- Vertex 3 Z-coordinate {m}
    7.450000000000,          !- Vertex 4 X-coordinate {m}
    3.600000000000,          !- Vertex 4 Y-coordinate {m}
    5.700000000000;          !- Vertex 4 Z-coordinate {m}

BuildingSurface:Detailed,
    B471E1,                  !- Name
    Ceiling,                 !- Surface Type
    Interior Ceiling,        !- Construction Name
    CIRCULA_P3,              !- Zone Name
    Surface,                 !- Outside Boundary Condition
    9E9D18,                  !- Outside Boundary Condition Object
    NoSun,                   !- Sun Exposure
    NoWind,                  !- Wind Exposure
    ,                        !- View Factor to Ground
    4,                       !- Number of Vertices
    7.450000000000,          !- Vertex 1 X-coordinate {m}
    3.600000000000,          !- Vertex 1 Y-coordinate {m}
    8.550000000000,          !- Vertex 1 Z-coordinate {m}
    7.450000000000,          !- Vertex 2 X-coordinate {m}
    -3.600000000000,         !- Vertex 2 Y-coordinate {m}
    8.550000000000,          !- Vertex 2 Z-coordinate {m}
    9.700000000000,          !- Vertex 3 X-coordinate {m}
    -3.600000000000,         !- Vertex 3 Y-coordinate {m}
    8.550000000000,          !- Vertex 3 Z-coordinate {m}
    9.700000000000,          !- Vertex 4 X-coordinate {m}
    3.600000000000,          !- Vertex 4 Y-coordinate {m}
    8.550000000000;          !- Vertex 4 Z-coordinate {m}

BuildingSurface:Detailed,
    70EA51,                  !- Name
    Wall,                    !- Surface Type
    Interior Wall,           !- Construction Name
    CIRCULA_P3,              !- Zone Name
    Surface,                 !- Outside Boundary Condition
    86CEEB,                  !- Outside Boundary Condition Object
    NoSun,                   !- Sun Exposure
    NoWind,                  !- Wind Exposure
    ,                        !- View Factor to Ground
    4,                       !- Number of Vertices
    9.700000000000,          !- Vertex 1 X-coordinate {m}
    0.000000000000,          !- Vertex 1 Y-coordinate {m}
    8.550000000000,          !- Vertex 1 Z-coordinate {m}
    9.700000000000,          !- Vertex 2 X-coordinate {m}
    0.000000000000,          !- Vertex 2 Y-coordinate {m}
    5.700000000000,          !- Vertex 2 Z-coordinate {m}
    9.700000000000,          !- Vertex 3 X-coordinate {m}
    3.600000000000,          !- Vertex 3 Y-coordinate {m}
    5.700000000000,          !- Vertex 3 Z-coordinate {m}
    9.700000000000,          !- Vertex 4 X-coordinate {m}
    3.600000000000,          !- Vertex 4 Y-coordinate {m}
    8.550000000000;          !- Vertex 4 Z-coordinate {m}

BuildingSurface:Detailed,
    F0114F,                  !- Name
    Wall,                    !- Surface Type
    Exterior Wall North,     !- Construction Name
    CIRCULA_P3,              !- Zone Name
    Outdoors,                !- Outside Boundary Condition
    ,                        !- Outside Boundary Condition Object
    SunExposed,              !- Sun Exposure
    WindExposed,             !- Wind Exposure
    ,                        !- View Factor to Ground
    4,                       !- Number of Vertices
    7.450000000000,          !- Vertex 1 X-coordinate {m}
    -3.600000000000,         !- Vertex 1 Y-coordinate {m}
    8.550000000000,          !- Vertex 1 Z-coordinate {m}
    7.450000000000,          !- Vertex 2 X-coordinate {m}
    -3.600000000000,         !- Vertex 2 Y-coordinate {m}
    5.700000000000,          !- Vertex 2 Z-coordinate {m}
    9.700000000000,          !- Vertex 3 X-coordinate {m}
    -3.600000000000,         !- Vertex 3 Y-coordinate {m}
    5.700000000000,          !- Vertex 3 Z-coordinate {m}
    9.700000000000,          !- Vertex 4 X-coordinate {m}
    -3.600000000000,         !- Vertex 4 Y-coordinate {m}
    8.550000000000;          !- Vertex 4 Z-coordinate {m}

BuildingSurface:Detailed,
    122703,                  !- Name
    Wall,                    !- Surface Type
    Interior Wall,           !- Construction Name
    CIRCULA_P3,              !- Zone Name
    Surface,                 !- Outside Boundary Condition
    C2D3CB,                  !- Outside Boundary Condition Object
    NoSun,                   !- Sun Exposure
    NoWind,                  !- Wind Exposure
    ,                        !- View Factor to Ground
    4,                       !- Number of Vertices
    7.450000000000,          !- Vertex 1 X-coordinate {m}
    0.000000000000,          !- Vertex 1 Y-coordinate {m}
    8.550000000000,          !- Vertex 1 Z-coordinate {m}
    7.450000000000,          !- Vertex 2 X-coordinate {m}
    0.000000000000,          !- Vertex 2 Y-coordinate {m}
    5.700000000000,          !- Vertex 2 Z-coordinate {m}
    7.450000000000,          !- Vertex 3 X-coordinate {m}
    -3.600000000000,         !- Vertex 3 Y-coordinate {m}
    5.700000000000,          !- Vertex 3 Z-coordinate {m}
    7.450000000000,          !- Vertex 4 X-coordinate {m}
    -3.600000000000,         !- Vertex 4 Y-coordinate {m}
    8.550000000000;          !- Vertex 4 Z-coordinate {m}

BuildingSurface:Detailed,
    546C4E,                  !- Name
    Wall,                    !- Surface Type
    Exterior Wall South,     !- Construction Name
    CIRCULA_P3,              !- Zone Name
    Outdoors,                !- Outside Boundary Condition
    ,                        !- Outside Boundary Condition Object
    SunExposed,              !- Sun Exposure
    WindExposed,             !- Wind Exposure
    ,                        !- View Factor to Ground
    4,                       !- Number of Vertices
    9.700000000000,          !- Vertex 1 X-coordinate {m}
    3.600000000000,          !- Vertex 1 Y-coordinate {m}
    8.550000000000,          !- Vertex 1 Z-coordinate {m}
    9.700000000000,          !- Vertex 2 X-coordinate {m}
    3.600000000000,          !- Vertex 2 Y-coordinate {m}
    5.700000000000,          !- Vertex 2 Z-coordinate {m}
    7.450000000000,          !- Vertex 3 X-coordinate {m}
    3.600000000000,          !- Vertex 3 Y-coordinate {m}
    5.700000000000,          !- Vertex 3 Z-coordinate {m}
    7.450000000000,          !- Vertex 4 X-coordinate {m}
    3.600000000000,          !- Vertex 4 Y-coordinate {m}
    8.550000000000;          !- Vertex 4 Z-coordinate {m}

BuildingSurface:Detailed,
    F5E602,                  !- Name
    Wall,                    !- Surface Type
    Interior Wall,           !- Construction Name
    CIRCULA_P3,              !- Zone Name
    Surface,                 !- Outside Boundary Condition
    5B50C4,                  !- Outside Boundary Condition Object
    NoSun,                   !- Sun Exposure
    NoWind,                  !- Wind Exposure
    ,                        !- View Factor to Ground
    4,                       !- Number of Vertices
    7.450000000000,          !- Vertex 1 X-coordinate {m}
    3.600000000000,          !- Vertex 1 Y-coordinate {m}
    8.550000000000,          !- Vertex 1 Z-coordinate {m}
    7.450000000000,          !- Vertex 2 X-coordinate {m}
    3.600000000000,          !- Vertex 2 Y-coordinate {m}
    5.700000000000,          !- Vertex 2 Z-coordinate {m}
    7.450000000000,          !- Vertex 3 X-coordinate {m}
    0.000000000000,          !- Vertex 3 Y-coordinate {m}
    5.700000000000,          !- Vertex 3 Z-coordinate {m}
    7.450000000000,          !- Vertex 4 X-coordinate {m}
    0.000000000000,          !- Vertex 4 Y-coordinate {m}
    8.550000000000;          !- Vertex 4 Z-coordinate {m}

BuildingSurface:Detailed,
    8F9255,                  !- Name
    Wall,                    !- Surface Type
    Interior Wall,           !- Construction Name
    CIRCULA_P3,              !- Zone Name
    Surface,                 !- Outside Boundary Condition
    5D73C3,                  !- Outside Boundary Condition Object
    NoSun,                   !- Sun Exposure
    NoWind,                  !- Wind Exposure
    ,                        !- View Factor to Ground
    4,                       !- Number of Vertices
    9.700000000000,          !- Vertex 1 X-coordinate {m}
    -3.600000000000,         !- Vertex 1 Y-coordinate {m}
    8.550000000000,          !- Vertex 1 Z-coordinate {m}
    9.700000000000,          !- Vertex 2 X-coordinate {m}
    -3.600000000000,         !- Vertex 2 Y-coordinate {m}
    5.700000000000,          !- Vertex 2 Z-coordinate {m}
    9.700000000000,          !- Vertex 3 X-coordinate {m}
    0.000000000000,          !- Vertex 3 Y-coordinate {m}
    5.700000000000,          !- Vertex 3 Z-coordinate {m}
    9.700000000000,          !- Vertex 4 X-coordinate {m}
    0.000000000000,          !- Vertex 4 Y-coordinate {m}
    8.550000000000;          !- Vertex 4 Z-coordinate {m}

BuildingSurface:Detailed,
    E02C26,                  !- Name
    Floor,                   !- Surface Type
    Interior Floor,          !- Construction Name
    APTO03_P3,               !- Zone Name
    Surface,                 !- Outside Boundary Condition
    2E819A,                  !- Outside Boundary Condition Object
    NoSun,                   !- Sun Exposure
    NoWind,                  !- Wind Exposure
    ,                        !- View Factor to Ground
    8,                       !- Number of Vertices
    17.150000000000,         !- Vertex 1 X-coordinate {m}
    6.750000000000,          !- Vertex 1 Y-coordinate {m}
    5.700000000000,          !- Vertex 1 Z-coordinate {m}
    17.150000000000,         !- Vertex 2 X-coordinate {m}
    0.950000000000,          !- Vertex 2 Y-coordinate {m}
    5.700000000000,          !- Vertex 2 Z-coordinate {m}
    15.800000000000,         !- Vertex 3 X-coordinate {m}
    0.950000000000,          !- Vertex 3 Y-coordinate {m}
    5.700000000000,          !- Vertex 3 Z-coordinate {m}
    15.800000000000,         !- Vertex 4 X-coordinate {m}
    0.000000000000,          !- Vertex 4 Y-coordinate {m}
    5.700000000000,          !- Vertex 4 Z-coordinate {m}
    9.700000000000,          !- Vertex 5 X-coordinate {m}
    0.000000000000,          !- Vertex 5 Y-coordinate {m}
    5.700000000000,          !- Vertex 5 Z-coordinate {m}
    9.700000000000,          !- Vertex 6 X-coordinate {m}
    3.600000000000,          !- Vertex 6 Y-coordinate {m}
    5.700000000000,          !- Vertex 6 Z-coordinate {m}
    11.350000000000,         !- Vertex 7 X-coordinate {m}
    3.600000000000,          !- Vertex 7 Y-coordinate {m}
    5.700000000000,          !- Vertex 7 Z-coordinate {m}
    11.350000000000,         !- Vertex 8 X-coordinate {m}
    6.750000000000,          !- Vertex 8 Y-coordinate {m}
    5.700000000000;          !- Vertex 8 Z-coordinate {m}

BuildingSurface:Detailed,
    C1DCE0,                  !- Name
    Ceiling,                 !- Surface Type
    Interior Ceiling,        !- Construction Name
    APTO03_P3,               !- Zone Name
    Surface,                 !- Outside Boundary Condition
    8D7E48,                  !- Outside Boundary Condition Object
    NoSun,                   !- Sun Exposure
    NoWind,                  !- Wind Exposure
    ,                        !- View Factor to Ground
    8,                       !- Number of Vertices
    11.350000000000,         !- Vertex 1 X-coordinate {m}
    6.750000000000,          !- Vertex 1 Y-coordinate {m}
    8.550000000000,          !- Vertex 1 Z-coordinate {m}
    11.350000000000,         !- Vertex 2 X-coordinate {m}
    3.600000000000,          !- Vertex 2 Y-coordinate {m}
    8.550000000000,          !- Vertex 2 Z-coordinate {m}
    9.700000000000,          !- Vertex 3 X-coordinate {m}
    3.600000000000,          !- Vertex 3 Y-coordinate {m}
    8.550000000000,          !- Vertex 3 Z-coordinate {m}
    9.700000000000,          !- Vertex 4 X-coordinate {m}
    0.000000000000,          !- Vertex 4 Y-coordinate {m}
    8.550000000000,          !- Vertex 4 Z-coordinate {m}
    15.800000000000,         !- Vertex 5 X-coordinate {m}
    0.000000000000,          !- Vertex 5 Y-coordinate {m}
    8.550000000000,          !- Vertex 5 Z-coordinate {m}
    15.800000000000,         !- Vertex 6 X-coordinate {m}
    0.950000000000,          !- Vertex 6 Y-coordinate {m}
    8.550000000000,          !- Vertex 6 Z-coordinate {m}
    17.150000000000,         !- Vertex 7 X-coordinate {m}
    0.950000000000,          !- Vertex 7 Y-coordinate {m}
    8.550000000000,          !- Vertex 7 Z-coordinate {m}
    17.150000000000,         !- Vertex 8 X-coordinate {m}
    6.750000000000,          !- Vertex 8 Y-coordinate {m}
    8.550000000000;          !- Vertex 8 Z-coordinate {m}

BuildingSurface:Detailed,
    86CEEB,                  !- Name
    Wall,                    !- Surface Type
    Interior Wall,           !- Construction Name
    APTO03_P3,               !- Zone Name
    Surface,                 !- Outside Boundary Condition
    70EA51,                  !- Outside Boundary Condition Object
    NoSun,                   !- Sun Exposure
    NoWind,                  !- Wind Exposure
    ,                        !- View Factor to Ground
    4,                       !- Number of Vertices
    9.700000000000,          !- Vertex 1 X-coordinate {m}
    3.600000000000,          !- Vertex 1 Y-coordinate {m}
    8.550000000000,          !- Vertex 1 Z-coordinate {m}
    9.700000000000,          !- Vertex 2 X-coordinate {m}
    3.600000000000,          !- Vertex 2 Y-coordinate {m}
    5.700000000000,          !- Vertex 2 Z-coordinate {m}
    9.700000000000,          !- Vertex 3 X-coordinate {m}
    0.000000000000,          !- Vertex 3 Y-coordinate {m}
    5.700000000000,          !- Vertex 3 Z-coordinate {m}
    9.700000000000,          !- Vertex 4 X-coordinate {m}
    0.000000000000,          !- Vertex 4 Y-coordinate {m}
    8.550000000000;          !- Vertex 4 Z-coordinate {m}

BuildingSurface:Detailed,
    B82FD2,                  !- Name
    Wall,                    !- Surface Type
    Exterior Wall North,     !- Construction Name
    APTO03_P3,               !- Zone Name
    Outdoors,                !- Outside Boundary Condition
    ,                        !- Outside Boundary Condition Object
    SunExposed,              !- Sun Exposure
    WindExposed,             !- Wind Exposure
    ,                        !- View Factor to Ground
    4,                       !- Number of Vertices
    11.350000000000,         !- Vertex 1 X-coordinate {m}
    3.600000000000,          !- Vertex 1 Y-coordinate {m}
    8.550000000000,          !- Vertex 1 Z-coordinate {m}
    11.350000000000,         !- Vertex 2 X-coordinate {m}
    3.600000000000,          !- Vertex 2 Y-coordinate {m}
    5.700000000000,          !- Vertex 2 Z-coordinate {m}
    9.700000000000,          !- Vertex 3 X-coordinate {m}
    3.600000000000,          !- Vertex 3 Y-coordinate {m}
    5.700000000000,          !- Vertex 3 Z-coordinate {m}
    9.700000000000,          !- Vertex 4 X-coordinate {m}
    3.600000000000,          !- Vertex 4 Y-coordinate {m}
    8.550000000000;          !- Vertex 4 Z-coordinate {m}

BuildingSurface:Detailed,
    E1BC55,                  !- Name
    Wall,                    !- Surface Type
    Exterior Wall West,      !- Construction Name
    APTO03_P3,               !- Zone Name
    Outdoors,                !- Outside Boundary Condition
    ,                        !- Outside Boundary Condition Object
    SunExposed,              !- Sun Exposure
    WindExposed,             !- Wind Exposure
    ,                        !- View Factor to Ground
    4,                       !- Number of Vertices
    11.350000000000,         !- Vertex 1 X-coordinate {m}
    6.750000000000,          !- Vertex 1 Y-coordinate {m}
    8.550000000000,          !- Vertex 1 Z-coordinate {m}
    11.350000000000,         !- Vertex 2 X-coordinate {m}
    6.750000000000,          !- Vertex 2 Y-coordinate {m}
    5.700000000000,          !- Vertex 2 Z-coordinate {m}
    11.350000000000,         !- Vertex 3 X-coordinate {m}
    3.600000000000,          !- Vertex 3 Y-coordinate {m}
    5.700000000000,          !- Vertex 3 Z-coordinate {m}
    11.350000000000,         !- Vertex 4 X-coordinate {m}
    3.600000000000,          !- Vertex 4 Y-coordinate {m}
    8.550000000000;          !- Vertex 4 Z-coordinate {m}

BuildingSurface:Detailed,
    CC7814,                  !- Name
    Wall,                    !- Surface Type
    Exterior Wall North,     !- Construction Name
    APTO03_P3,               !- Zone Name
    Outdoors,                !- Outside Boundary Condition
    ,                        !- Outside Boundary Condition Object
    SunExposed,              !- Sun Exposure
    WindExposed,             !- Wind Exposure
    ,                        !- View Factor to Ground
    4,                       !- Number of Vertices
    17.150000000000,         !- Vertex 1 X-coordinate {m}
    6.750000000000,          !- Vertex 1 Y-coordinate {m}
    8.550000000000,          !- Vertex 1 Z-coordinate {m}
    17.150000000000,         !- Vertex 2 X-coordinate {m}
    6.750000000000,          !- Vertex 2 Y-coordinate {m}
    5.700000000000,          !- Vertex 2 Z-coordinate {m}
    11.350000000000,         !- Vertex 3 X-coordinate {m}
    6.750000000000,          !- Vertex 3 Y-coordinate {m}
    5.700000000000,          !- Vertex 3 Z-coordinate {m}
    11.350000000000,         !- Vertex 4 X-coordinate {m}
    6.750000000000,          !- Vertex 4 Y-coordinate {m}
    8.550000000000;          !- Vertex 4 Z-coordinate {m}

BuildingSurface:Detailed,
    35BCAB,                  !- Name
    Wall,                    !- Surface Type
    Exterior Wall East,      !- Construction Name
    APTO03_P3,               !- Zone Name
    Outdoors,                !- Outside Boundary Condition
    ,                        !- Outside Boundary Condition Object
    SunExposed,              !- Sun Exposure
    WindExposed,             !- Wind Exposure
    ,                        !- View Factor to Ground
    4,                       !- Number of Vertices
    17.150000000000,         !- Vertex 1 X-coordinate {m}
    0.950000000000,          !- Vertex 1 Y-coordinate {m}
    8.550000000000,          !- Vertex 1 Z-coordinate {m}
    17.150000000000,         !- Vertex 2 X-coordinate {m}
    0.950000000000,          !- Vertex 2 Y-coordinate {m}
    5.700000000000,          !- Vertex 2 Z-coordinate {m}
    17.150000000000,         !- Vertex 3 X-coordinate {m}
    6.750000000000,          !- Vertex 3 Y-coordinate {m}
    5.700000000000,          !- Vertex 3 Z-coordinate {m}
    17.150000000000,         !- Vertex 4 X-coordinate {m}
    6.750000000000,          !- Vertex 4 Y-coordinate {m}
    8.550000000000;          !- Vertex 4 Z-coordinate {m}

BuildingSurface:Detailed,
    29826B,                  !- Name
    Wall,                    !- Surface Type
    Exterior Wall South,     !- Construction Name
    APTO03_P3,               !- Zone Name
    Outdoors,                !- Outside Boundary Condition
    ,                        !- Outside Boundary Condition Object
    SunExposed,              !- Sun Exposure
    WindExposed,             !- Wind Exposure
    ,                        !- View Factor to Ground
    4,                       !- Number of Vertices
    15.800000000000,         !- Vertex 1 X-coordinate {m}
    0.950000000000,          !- Vertex 1 Y-coordinate {m}
    8.550000000000,          !- Vertex 1 Z-coordinate {m}
    15.800000000000,         !- Vertex 2 X-coordinate {m}
    0.950000000000,          !- Vertex 2 Y-coordinate {m}
    5.700000000000,          !- Vertex 2 Z-coordinate {m}
    17.150000000000,         !- Vertex 3 X-coordinate {m}
    0.950000000000,          !- Vertex 3 Y-coordinate {m}
    5.700000000000,          !- Vertex 3 Z-coordinate {m}
    17.150000000000,         !- Vertex 4 X-coordinate {m}
    0.950000000000,          !- Vertex 4 Y-coordinate {m}
    8.550000000000;          !- Vertex 4 Z-coordinate {m}

BuildingSurface:Detailed,
    CB8D59,                  !- Name
    Wall,                    !- Surface Type
    Exterior Wall East,      !- Construction Name
    APTO03_P3,               !- Zone Name
    Outdoors,                !- Outside Boundary Condition
    ,                        !- Outside Boundary Condition Object
    SunExposed,              !- Sun Exposure
    WindExposed,             !- Wind Exposure
    ,                        !- View Factor to Ground
    4,                       !- Number of Vertices
    15.800000000000,         !- Vertex 1 X-coordinate {m}
    0.000000000000,          !- Vertex 1 Y-coordinate {m}
    8.550000000000,          !- Vertex 1 Z-coordinate {m}
    15.800000000000,         !- Vertex 2 X-coordinate {m}
    0.000000000000,          !- Vertex 2 Y-coordinate {m}
    5.700000000000,          !- Vertex 2 Z-coordinate {m}
    15.800000000000,         !- Vertex 3 X-coordinate {m}
    0.950000000000,          !- Vertex 3 Y-coordinate {m}
    5.700000000000,          !- Vertex 3 Z-coordinate {m}
    15.800000000000,         !- Vertex 4 X-coordinate {m}
    0.950000000000,          !- Vertex 4 Y-coordinate {m}
    8.550000000000;          !- Vertex 4 Z-coordinate {m}

BuildingSurface:Detailed,
    11A6C3,                  !- Name
    Wall,                    !- Surface Type
    Interior Wall,           !- Construction Name
    APTO03_P3,               !- Zone Name
    Surface,                 !- Outside Boundary Condition
    B7745C,                  !- Outside Boundary Condition Object
    NoSun,                   !- Sun Exposure
    NoWind,                  !- Wind Exposure
    ,                        !- View Factor to Ground
    4,                       !- Number of Vertices
    9.700000000000,          !- Vertex 1 X-coordinate {m}
    0.000000000000,          !- Vertex 1 Y-coordinate {m}
    8.550000000000,          !- Vertex 1 Z-coordinate {m}
    9.700000000000,          !- Vertex 2 X-coordinate {m}
    0.000000000000,          !- Vertex 2 Y-coordinate {m}
    5.700000000000,          !- Vertex 2 Z-coordinate {m}
    15.800000000000,         !- Vertex 3 X-coordinate {m}
    0.000000000000,          !- Vertex 3 Y-coordinate {m}
    5.700000000000,          !- Vertex 3 Z-coordinate {m}
    15.800000000000,         !- Vertex 4 X-coordinate {m}
    0.000000000000,          !- Vertex 4 Y-coordinate {m}
    8.550000000000;          !- Vertex 4 Z-coordinate {m}

BuildingSurface:Detailed,
    A64E8B,                  !- Name
    Wall,                    !- Surface Type
    Exterior Wall South,     !- Construction Name
    APTO01_P3,               !- Zone Name
    Outdoors,                !- Outside Boundary Condition
    ,                        !- Outside Boundary Condition Object
    SunExposed,              !- Sun Exposure
    WindExposed,             !- Wind Exposure
    ,                        !- View Factor to Ground
    4,                       !- Number of Vertices
    5.800000000000,          !- Vertex 1 X-coordinate {m}
    -3.600000000000,         !- Vertex 1 Y-coordinate {m}
    8.550000000000,          !- Vertex 1 Z-coordinate {m}
    5.800000000000,          !- Vertex 2 X-coordinate {m}
    -3.600000000000,         !- Vertex 2 Y-coordinate {m}
    5.700000000000,          !- Vertex 2 Z-coordinate {m}
    7.450000000000,          !- Vertex 3 X-coordinate {m}
    -3.600000000000,         !- Vertex 3 Y-coordinate {m}
    5.700000000000,          !- Vertex 3 Z-coordinate {m}
    7.450000000000,          !- Vertex 4 X-coordinate {m}
    -3.600000000000,         !- Vertex 4 Y-coordinate {m}
    8.550000000000;          !- Vertex 4 Z-coordinate {m}

BuildingSurface:Detailed,
    109479,                  !- Name
    Wall,                    !- Surface Type
    Exterior Wall South,     !- Construction Name
    APTO01_P3,               !- Zone Name
    Outdoors,                !- Outside Boundary Condition
    ,                        !- Outside Boundary Condition Object
    SunExposed,              !- Sun Exposure
    WindExposed,             !- Wind Exposure
    ,                        !- View Factor to Ground
    4,                       !- Number of Vertices
    0.000000000000,          !- Vertex 1 X-coordinate {m}
    -6.750000000000,         !- Vertex 1 Y-coordinate {m}
    8.550000000000,          !- Vertex 1 Z-coordinate {m}
    0.000000000000,          !- Vertex 2 X-coordinate {m}
    -6.750000000000,         !- Vertex 2 Y-coordinate {m}
    5.700000000000,          !- Vertex 2 Z-coordinate {m}
    5.800000000000,          !- Vertex 3 X-coordinate {m}
    -6.750000000000,         !- Vertex 3 Y-coordinate {m}
    5.700000000000,          !- Vertex 3 Z-coordinate {m}
    5.800000000000,          !- Vertex 4 X-coordinate {m}
    -6.750000000000,         !- Vertex 4 Y-coordinate {m}
    8.550000000000;          !- Vertex 4 Z-coordinate {m}

BuildingSurface:Detailed,
    C2D3CB,                  !- Name
    Wall,                    !- Surface Type
    Interior Wall,           !- Construction Name
    APTO01_P3,               !- Zone Name
    Surface,                 !- Outside Boundary Condition
    122703,                  !- Outside Boundary Condition Object
    NoSun,                   !- Sun Exposure
    NoWind,                  !- Wind Exposure
    ,                        !- View Factor to Ground
    4,                       !- Number of Vertices
    7.450000000000,          !- Vertex 1 X-coordinate {m}
    -3.600000000000,         !- Vertex 1 Y-coordinate {m}
    8.550000000000,          !- Vertex 1 Z-coordinate {m}
    7.450000000000,          !- Vertex 2 X-coordinate {m}
    -3.600000000000,         !- Vertex 2 Y-coordinate {m}
    5.700000000000,          !- Vertex 2 Z-coordinate {m}
    7.450000000000,          !- Vertex 3 X-coordinate {m}
    0.000000000000,          !- Vertex 3 Y-coordinate {m}
    5.700000000000,          !- Vertex 3 Z-coordinate {m}
    7.450000000000,          !- Vertex 4 X-coordinate {m}
    0.000000000000,          !- Vertex 4 Y-coordinate {m}
    8.550000000000;          !- Vertex 4 Z-coordinate {m}

BuildingSurface:Detailed,
    ABDB1A,                  !- Name
    Wall,                    !- Surface Type
    Exterior Wall North,     !- Construction Name
    APTO01_P3,               !- Zone Name
    Outdoors,                !- Outside Boundary Condition
    ,                        !- Outside Boundary Condition Object
    SunExposed,              !- Sun Exposure
    WindExposed,             !- Wind Exposure
    ,                        !- View Factor to Ground
    4,                       !- Number of Vertices
    1.350000000000,          !- Vertex 1 X-coordinate {m}
    -0.950000000000,         !- Vertex 1 Y-coordinate {m}
    8.550000000000,          !- Vertex 1 Z-coordinate {m}
    1.350000000000,          !- Vertex 2 X-coordinate {m}
    -0.950000000000,         !- Vertex 2 Y-coordinate {m}
    5.700000000000,          !- Vertex 2 Z-coordinate {m}
    0.000000000000,          !- Vertex 3 X-coordinate {m}
    -0.950000000000,         !- Vertex 3 Y-coordinate {m}
    5.700000000000,          !- Vertex 3 Z-coordinate {m}
    0.000000000000,          !- Vertex 4 X-coordinate {m}
    -0.950000000000,         !- Vertex 4 Y-coordinate {m}
    8.550000000000;          !- Vertex 4 Z-coordinate {m}

BuildingSurface:Detailed,
    7DBCBC,                  !- Name
    Ceiling,                 !- Surface Type
    Interior Ceiling,        !- Construction Name
    APTO01_P3,               !- Zone Name
    Surface,                 !- Outside Boundary Condition
    E77F82,                  !- Outside Boundary Condition Object
    NoSun,                   !- Sun Exposure
    NoWind,                  !- Wind Exposure
    ,                        !- View Factor to Ground
    8,                       !- Number of Vertices
    0.000000000000,          !- Vertex 1 X-coordinate {m}
    -0.950000000000,         !- Vertex 1 Y-coordinate {m}
    8.550000000000,          !- Vertex 1 Z-coordinate {m}
    0.000000000000,          !- Vertex 2 X-coordinate {m}
    -6.750000000000,         !- Vertex 2 Y-coordinate {m}
    8.550000000000,          !- Vertex 2 Z-coordinate {m}
    5.800000000000,          !- Vertex 3 X-coordinate {m}
    -6.750000000000,         !- Vertex 3 Y-coordinate {m}
    8.550000000000,          !- Vertex 3 Z-coordinate {m}
    5.800000000000,          !- Vertex 4 X-coordinate {m}
    -3.600000000000,         !- Vertex 4 Y-coordinate {m}
    8.550000000000,          !- Vertex 4 Z-coordinate {m}
    7.450000000000,          !- Vertex 5 X-coordinate {m}
    -3.600000000000,         !- Vertex 5 Y-coordinate {m}
    8.550000000000,          !- Vertex 5 Z-coordinate {m}
    7.450000000000,          !- Vertex 6 X-coordinate {m}
    0.000000000000,          !- Vertex 6 Y-coordinate {m}
    8.550000000000,          !- Vertex 6 Z-coordinate {m}
    1.350000000000,          !- Vertex 7 X-coordinate {m}
    0.000000000000,          !- Vertex 7 Y-coordinate {m}
    8.550000000000,          !- Vertex 7 Z-coordinate {m}
    1.350000000000,          !- Vertex 8 X-coordinate {m}
    -0.950000000000,         !- Vertex 8 Y-coordinate {m}
    8.550000000000;          !- Vertex 8 Z-coordinate {m}

BuildingSurface:Detailed,
    9DF329,                  !- Name
    Wall,                    !- Surface Type
    Exterior Wall West,      !- Construction Name
    APTO01_P3,               !- Zone Name
    Outdoors,                !- Outside Boundary Condition
    ,                        !- Outside Boundary Condition Object
    SunExposed,              !- Sun Exposure
    WindExposed,             !- Wind Exposure
    ,                        !- View Factor to Ground
    4,                       !- Number of Vertices
    0.000000000000,          !- Vertex 1 X-coordinate {m}
    -0.950000000000,         !- Vertex 1 Y-coordinate {m}
    8.550000000000,          !- Vertex 1 Z-coordinate {m}
    0.000000000000,          !- Vertex 2 X-coordinate {m}
    -0.950000000000,         !- Vertex 2 Y-coordinate {m}
    5.700000000000,          !- Vertex 2 Z-coordinate {m}
    0.000000000000,          !- Vertex 3 X-coordinate {m}
    -6.750000000000,         !- Vertex 3 Y-coordinate {m}
    5.700000000000,          !- Vertex 3 Z-coordinate {m}
    0.000000000000,          !- Vertex 4 X-coordinate {m}
    -6.750000000000,         !- Vertex 4 Y-coordinate {m}
    8.550000000000;          !- Vertex 4 Z-coordinate {m}

BuildingSurface:Detailed,
    AE3433,                  !- Name
    Wall,                    !- Surface Type
    Exterior Wall West,      !- Construction Name
    APTO01_P3,               !- Zone Name
    Outdoors,                !- Outside Boundary Condition
    ,                        !- Outside Boundary Condition Object
    SunExposed,              !- Sun Exposure
    WindExposed,             !- Wind Exposure
    ,                        !- View Factor to Ground
    4,                       !- Number of Vertices
    1.350000000000,          !- Vertex 1 X-coordinate {m}
    0.000000000000,          !- Vertex 1 Y-coordinate {m}
    8.550000000000,          !- Vertex 1 Z-coordinate {m}
    1.350000000000,          !- Vertex 2 X-coordinate {m}
    0.000000000000,          !- Vertex 2 Y-coordinate {m}
    5.700000000000,          !- Vertex 2 Z-coordinate {m}
    1.350000000000,          !- Vertex 3 X-coordinate {m}
    -0.950000000000,         !- Vertex 3 Y-coordinate {m}
    5.700000000000,          !- Vertex 3 Z-coordinate {m}
    1.350000000000,          !- Vertex 4 X-coordinate {m}
    -0.950000000000,         !- Vertex 4 Y-coordinate {m}
    8.550000000000;          !- Vertex 4 Z-coordinate {m}

BuildingSurface:Detailed,
    3F7A3B,                  !- Name
    Wall,                    !- Surface Type
    Interior Wall,           !- Construction Name
    APTO01_P3,               !- Zone Name
    Surface,                 !- Outside Boundary Condition
    C7B9A6,                  !- Outside Boundary Condition Object
    NoSun,                   !- Sun Exposure
    NoWind,                  !- Wind Exposure
    ,                        !- View Factor to Ground
    4,                       !- Number of Vertices
    7.450000000000,          !- Vertex 1 X-coordinate {m}
    0.000000000000,          !- Vertex 1 Y-coordinate {m}
    8.550000000000,          !- Vertex 1 Z-coordinate {m}
    7.450000000000,          !- Vertex 2 X-coordinate {m}
    0.000000000000,          !- Vertex 2 Y-coordinate {m}
    5.700000000000,          !- Vertex 2 Z-coordinate {m}
    1.350000000000,          !- Vertex 3 X-coordinate {m}
    0.000000000000,          !- Vertex 3 Y-coordinate {m}
    5.700000000000,          !- Vertex 3 Z-coordinate {m}
    1.350000000000,          !- Vertex 4 X-coordinate {m}
    0.000000000000,          !- Vertex 4 Y-coordinate {m}
    8.550000000000;          !- Vertex 4 Z-coordinate {m}

BuildingSurface:Detailed,
    2B1DFD,                  !- Name
    Floor,                   !- Surface Type
    Interior Floor,          !- Construction Name
    APTO01_P3,               !- Zone Name
    Surface,                 !- Outside Boundary Condition
    4C3C42,                  !- Outside Boundary Condition Object
    NoSun,                   !- Sun Exposure
    NoWind,                  !- Wind Exposure
    ,                        !- View Factor to Ground
    8,                       !- Number of Vertices
    7.450000000000,          !- Vertex 1 X-coordinate {m}
    0.000000000000,          !- Vertex 1 Y-coordinate {m}
    5.700000000000,          !- Vertex 1 Z-coordinate {m}
    7.450000000000,          !- Vertex 2 X-coordinate {m}
    -3.600000000000,         !- Vertex 2 Y-coordinate {m}
    5.700000000000,          !- Vertex 2 Z-coordinate {m}
    5.800000000000,          !- Vertex 3 X-coordinate {m}
    -3.600000000000,         !- Vertex 3 Y-coordinate {m}
    5.700000000000,          !- Vertex 3 Z-coordinate {m}
    5.800000000000,          !- Vertex 4 X-coordinate {m}
    -6.750000000000,         !- Vertex 4 Y-coordinate {m}
    5.700000000000,          !- Vertex 4 Z-coordinate {m}
    0.000000000000,          !- Vertex 5 X-coordinate {m}
    -6.750000000000,         !- Vertex 5 Y-coordinate {m}
    5.700000000000,          !- Vertex 5 Z-coordinate {m}
    0.000000000000,          !- Vertex 6 X-coordinate {m}
    -0.950000000000,         !- Vertex 6 Y-coordinate {m}
    5.700000000000,          !- Vertex 6 Z-coordinate {m}
    1.350000000000,          !- Vertex 7 X-coordinate {m}
    -0.950000000000,         !- Vertex 7 Y-coordinate {m}
    5.700000000000,          !- Vertex 7 Z-coordinate {m}
    1.350000000000,          !- Vertex 8 X-coordinate {m}
    0.000000000000,          !- Vertex 8 Y-coordinate {m}
    5.700000000000;          !- Vertex 8 Z-coordinate {m}

BuildingSurface:Detailed,
    1DE4C7,                  !- Name
    Wall,                    !- Surface Type
    Exterior Wall East,      !- Construction Name
    APTO01_P3,               !- Zone Name
    Outdoors,                !- Outside Boundary Condition
    ,                        !- Outside Boundary Condition Object
    SunExposed,              !- Sun Exposure
    WindExposed,             !- Wind Exposure
    ,                        !- View Factor to Ground
    4,                       !- Number of Vertices
    5.800000000000,          !- Vertex 1 X-coordinate {m}
    -6.750000000000,         !- Vertex 1 Y-coordinate {m}
    8.550000000000,          !- Vertex 1 Z-coordinate {m}
    5.800000000000,          !- Vertex 2 X-coordinate {m}
    -6.750000000000,         !- Vertex 2 Y-coordinate {m}
    5.700000000000,          !- Vertex 2 Z-coordinate {m}
    5.800000000000,          !- Vertex 3 X-coordinate {m}
    -3.600000000000,         !- Vertex 3 Y-coordinate {m}
    5.700000000000,          !- Vertex 3 Z-coordinate {m}
    5.800000000000,          !- Vertex 4 X-coordinate {m}
    -3.600000000000,         !- Vertex 4 Y-coordinate {m}
    8.550000000000;          !- Vertex 4 Z-coordinate {m}

BuildingSurface:Detailed,
    C26B29,                  !- Name
    Floor,                   !- Surface Type
    Interior Floor,          !- Construction Name
    APTO04_P3,               !- Zone Name
    Surface,                 !- Outside Boundary Condition
    B15176,                  !- Outside Boundary Condition Object
    NoSun,                   !- Sun Exposure
    NoWind,                  !- Wind Exposure
    ,                        !- View Factor to Ground
    8,                       !- Number of Vertices
    15.800000000000,         !- Vertex 1 X-coordinate {m}
    0.000000000000,          !- Vertex 1 Y-coordinate {m}
    5.700000000000,          !- Vertex 1 Z-coordinate {m}
    15.800000000000,         !- Vertex 2 X-coordinate {m}
    -0.950000000000,         !- Vertex 2 Y-coordinate {m}
    5.700000000000,          !- Vertex 2 Z-coordinate {m}
    17.150000000000,         !- Vertex 3 X-coordinate {m}
    -0.950000000000,         !- Vertex 3 Y-coordinate {m}
    5.700000000000,          !- Vertex 3 Z-coordinate {m}
    17.150000000000,         !- Vertex 4 X-coordinate {m}
    -6.750000000000,         !- Vertex 4 Y-coordinate {m}
    5.700000000000,          !- Vertex 4 Z-coordinate {m}
    11.350000000000,         !- Vertex 5 X-coordinate {m}
    -6.750000000000,         !- Vertex 5 Y-coordinate {m}
    5.700000000000,          !- Vertex 5 Z-coordinate {m}
    11.350000000000,         !- Vertex 6 X-coordinate {m}
    -3.600000000000,         !- Vertex 6 Y-coordinate {m}
    5.700000000000,          !- Vertex 6 Z-coordinate {m}
    9.700000000000,          !- Vertex 7 X-coordinate {m}
    -3.600000000000,         !- Vertex 7 Y-coordinate {m}
    5.700000000000,          !- Vertex 7 Z-coordinate {m}
    9.700000000000,          !- Vertex 8 X-coordinate {m}
    0.000000000000,          !- Vertex 8 Y-coordinate {m}
    5.700000000000;          !- Vertex 8 Z-coordinate {m}

BuildingSurface:Detailed,
    5DA920,                  !- Name
    Ceiling,                 !- Surface Type
    Interior Ceiling,        !- Construction Name
    APTO04_P3,               !- Zone Name
    Surface,                 !- Outside Boundary Condition
    8E9682,                  !- Outside Boundary Condition Object
    NoSun,                   !- Sun Exposure
    NoWind,                  !- Wind Exposure
    ,                        !- View Factor to Ground
    8,                       !- Number of Vertices
    9.700000000000,          !- Vertex 1 X-coordinate {m}
    0.000000000000,          !- Vertex 1 Y-coordinate {m}
    8.550000000000,          !- Vertex 1 Z-coordinate {m}
    9.700000000000,          !- Vertex 2 X-coordinate {m}
    -3.600000000000,         !- Vertex 2 Y-coordinate {m}
    8.550000000000,          !- Vertex 2 Z-coordinate {m}
    11.350000000000,         !- Vertex 3 X-coordinate {m}
    -3.600000000000,         !- Vertex 3 Y-coordinate {m}
    8.550000000000,          !- Vertex 3 Z-coordinate {m}
    11.350000000000,         !- Vertex 4 X-coordinate {m}
    -6.750000000000,         !- Vertex 4 Y-coordinate {m}
    8.550000000000,          !- Vertex 4 Z-coordinate {m}
    17.150000000000,         !- Vertex 5 X-coordinate {m}
    -6.750000000000,         !- Vertex 5 Y-coordinate {m}
    8.550000000000,          !- Vertex 5 Z-coordinate {m}
    17.150000000000,         !- Vertex 6 X-coordinate {m}
    -0.950000000000,         !- Vertex 6 Y-coordinate {m}
    8.550000000000,          !- Vertex 6 Z-coordinate {m}
    15.800000000000,         !- Vertex 7 X-coordinate {m}
    -0.950000000000,         !- Vertex 7 Y-coordinate {m}
    8.550000000000,          !- Vertex 7 Z-coordinate {m}
    15.800000000000,         !- Vertex 8 X-coordinate {m}
    0.000000000000,          !- Vertex 8 Y-coordinate {m}
    8.550000000000;          !- Vertex 8 Z-coordinate {m}

BuildingSurface:Detailed,
    B7745C,                  !- Name
    Wall,                    !- Surface Type
    Interior Wall,           !- Construction Name
    APTO04_P3,               !- Zone Name
    Surface,                 !- Outside Boundary Condition
    11A6C3,                  !- Outside Boundary Condition Object
    NoSun,                   !- Sun Exposure
    NoWind,                  !- Wind Exposure
    ,                        !- View Factor to Ground
    4,                       !- Number of Vertices
    15.800000000000,         !- Vertex 1 X-coordinate {m}
    0.000000000000,          !- Vertex 1 Y-coordinate {m}
    8.550000000000,          !- Vertex 1 Z-coordinate {m}
    15.800000000000,         !- Vertex 2 X-coordinate {m}
    0.000000000000,          !- Vertex 2 Y-coordinate {m}
    5.700000000000,          !- Vertex 2 Z-coordinate {m}
    9.700000000000,          !- Vertex 3 X-coordinate {m}
    0.000000000000,          !- Vertex 3 Y-coordinate {m}
    5.700000000000,          !- Vertex 3 Z-coordinate {m}
    9.700000000000,          !- Vertex 4 X-coordinate {m}
    0.000000000000,          !- Vertex 4 Y-coordinate {m}
    8.550000000000;          !- Vertex 4 Z-coordinate {m}

BuildingSurface:Detailed,
    95078C,                  !- Name
    Wall,                    !- Surface Type
    Exterior Wall East,      !- Construction Name
    APTO04_P3,               !- Zone Name
    Outdoors,                !- Outside Boundary Condition
    ,                        !- Outside Boundary Condition Object
    SunExposed,              !- Sun Exposure
    WindExposed,             !- Wind Exposure
    ,                        !- View Factor to Ground
    4,                       !- Number of Vertices
    15.800000000000,         !- Vertex 1 X-coordinate {m}
    -0.950000000000,         !- Vertex 1 Y-coordinate {m}
    8.550000000000,          !- Vertex 1 Z-coordinate {m}
    15.800000000000,         !- Vertex 2 X-coordinate {m}
    -0.950000000000,         !- Vertex 2 Y-coordinate {m}
    5.700000000000,          !- Vertex 2 Z-coordinate {m}
    15.800000000000,         !- Vertex 3 X-coordinate {m}
    0.000000000000,          !- Vertex 3 Y-coordinate {m}
    5.700000000000,          !- Vertex 3 Z-coordinate {m}
    15.800000000000,         !- Vertex 4 X-coordinate {m}
    0.000000000000,          !- Vertex 4 Y-coordinate {m}
    8.550000000000;          !- Vertex 4 Z-coordinate {m}

BuildingSurface:Detailed,
    7A1838,                  !- Name
    Wall,                    !- Surface Type
    Exterior Wall North,     !- Construction Name
    APTO04_P3,               !- Zone Name
    Outdoors,                !- Outside Boundary Condition
    ,                        !- Outside Boundary Condition Object
    SunExposed,              !- Sun Exposure
    WindExposed,             !- Wind Exposure
    ,                        !- View Factor to Ground
    4,                       !- Number of Vertices
    17.150000000000,         !- Vertex 1 X-coordinate {m}
    -0.950000000000,         !- Vertex 1 Y-coordinate {m}
    8.550000000000,          !- Vertex 1 Z-coordinate {m}
    17.150000000000,         !- Vertex 2 X-coordinate {m}
    -0.950000000000,         !- Vertex 2 Y-coordinate {m}
    5.700000000000,          !- Vertex 2 Z-coordinate {m}
    15.800000000000,         !- Vertex 3 X-coordinate {m}
    -0.950000000000,         !- Vertex 3 Y-coordinate {m}
    5.700000000000,          !- Vertex 3 Z-coordinate {m}
    15.800000000000,         !- Vertex 4 X-coordinate {m}
    -0.950000000000,         !- Vertex 4 Y-coordinate {m}
    8.550000000000;          !- Vertex 4 Z-coordinate {m}

BuildingSurface:Detailed,
    90E4FE,                  !- Name
    Wall,                    !- Surface Type
    Exterior Wall East,      !- Construction Name
    APTO04_P3,               !- Zone Name
    Outdoors,                !- Outside Boundary Condition
    ,                        !- Outside Boundary Condition Object
    SunExposed,              !- Sun Exposure
    WindExposed,             !- Wind Exposure
    ,                        !- View Factor to Ground
    4,                       !- Number of Vertices
    17.150000000000,         !- Vertex 1 X-coordinate {m}
    -6.750000000000,         !- Vertex 1 Y-coordinate {m}
    8.550000000000,          !- Vertex 1 Z-coordinate {m}
    17.150000000000,         !- Vertex 2 X-coordinate {m}
    -6.750000000000,         !- Vertex 2 Y-coordinate {m}
    5.700000000000,          !- Vertex 2 Z-coordinate {m}
    17.150000000000,         !- Vertex 3 X-coordinate {m}
    -0.950000000000,         !- Vertex 3 Y-coordinate {m}
    5.700000000000,          !- Vertex 3 Z-coordinate {m}
    17.150000000000,         !- Vertex 4 X-coordinate {m}
    -0.950000000000,         !- Vertex 4 Y-coordinate {m}
    8.550000000000;          !- Vertex 4 Z-coordinate {m}

BuildingSurface:Detailed,
    E9FAEA,                  !- Name
    Wall,                    !- Surface Type
    Exterior Wall South,     !- Construction Name
    APTO04_P3,               !- Zone Name
    Outdoors,                !- Outside Boundary Condition
    ,                        !- Outside Boundary Condition Object
    SunExposed,              !- Sun Exposure
    WindExposed,             !- Wind Exposure
    ,                        !- View Factor to Ground
    4,                       !- Number of Vertices
    11.350000000000,         !- Vertex 1 X-coordinate {m}
    -6.750000000000,         !- Vertex 1 Y-coordinate {m}
    8.550000000000,          !- Vertex 1 Z-coordinate {m}
    11.350000000000,         !- Vertex 2 X-coordinate {m}
    -6.750000000000,         !- Vertex 2 Y-coordinate {m}
    5.700000000000,          !- Vertex 2 Z-coordinate {m}
    17.150000000000,         !- Vertex 3 X-coordinate {m}
    -6.750000000000,         !- Vertex 3 Y-coordinate {m}
    5.700000000000,          !- Vertex 3 Z-coordinate {m}
    17.150000000000,         !- Vertex 4 X-coordinate {m}
    -6.750000000000,         !- Vertex 4 Y-coordinate {m}
    8.550000000000;          !- Vertex 4 Z-coordinate {m}

BuildingSurface:Detailed,
    22A56D,                  !- Name
    Wall,                    !- Surface Type
    Exterior Wall West,      !- Construction Name
    APTO04_P3,               !- Zone Name
    Outdoors,                !- Outside Boundary Condition
    ,                        !- Outside Boundary Condition Object
    SunExposed,              !- Sun Exposure
    WindExposed,             !- Wind Exposure
    ,                        !- View Factor to Ground
    4,                       !- Number of Vertices
    11.350000000000,         !- Vertex 1 X-coordinate {m}
    -3.600000000000,         !- Vertex 1 Y-coordinate {m}
    8.550000000000,          !- Vertex 1 Z-coordinate {m}
    11.350000000000,         !- Vertex 2 X-coordinate {m}
    -3.600000000000,         !- Vertex 2 Y-coordinate {m}
    5.700000000000,          !- Vertex 2 Z-coordinate {m}
    11.350000000000,         !- Vertex 3 X-coordinate {m}
    -6.750000000000,         !- Vertex 3 Y-coordinate {m}
    5.700000000000,          !- Vertex 3 Z-coordinate {m}
    11.350000000000,         !- Vertex 4 X-coordinate {m}
    -6.750000000000,         !- Vertex 4 Y-coordinate {m}
    8.550000000000;          !- Vertex 4 Z-coordinate {m}

BuildingSurface:Detailed,
    5D73C3,                  !- Name
    Wall,                    !- Surface Type
    Interior Wall,           !- Construction Name
    APTO04_P3,               !- Zone Name
    Surface,                 !- Outside Boundary Condition
    8F9255,                  !- Outside Boundary Condition Object
    NoSun,                   !- Sun Exposure
    NoWind,                  !- Wind Exposure
    ,                        !- View Factor to Ground
    4,                       !- Number of Vertices
    9.700000000000,          !- Vertex 1 X-coordinate {m}
    0.000000000000,          !- Vertex 1 Y-coordinate {m}
    8.550000000000,          !- Vertex 1 Z-coordinate {m}
    9.700000000000,          !- Vertex 2 X-coordinate {m}
    0.000000000000,          !- Vertex 2 Y-coordinate {m}
    5.700000000000,          !- Vertex 2 Z-coordinate {m}
    9.700000000000,          !- Vertex 3 X-coordinate {m}
    -3.600000000000,         !- Vertex 3 Y-coordinate {m}
    5.700000000000,          !- Vertex 3 Z-coordinate {m}
    9.700000000000,          !- Vertex 4 X-coordinate {m}
    -3.600000000000,         !- Vertex 4 Y-coordinate {m}
    8.550000000000;          !- Vertex 4 Z-coordinate {m}

BuildingSurface:Detailed,
    C3ADA8,                  !- Name
    Wall,                    !- Surface Type
    Exterior Wall South,     !- Construction Name
    APTO04_P3,               !- Zone Name
    Outdoors,                !- Outside Boundary Condition
    ,                        !- Outside Boundary Condition Object
    SunExposed,              !- Sun Exposure
    WindExposed,             !- Wind Exposure
    ,                        !- View Factor to Ground
    4,                       !- Number of Vertices
    9.700000000000,          !- Vertex 1 X-coordinate {m}
    -3.600000000000,         !- Vertex 1 Y-coordinate {m}
    8.550000000000,          !- Vertex 1 Z-coordinate {m}
    9.700000000000,          !- Vertex 2 X-coordinate {m}
    -3.600000000000,         !- Vertex 2 Y-coordinate {m}
    5.700000000000,          !- Vertex 2 Z-coordinate {m}
    11.350000000000,         !- Vertex 3 X-coordinate {m}
    -3.600000000000,         !- Vertex 3 Y-coordinate {m}
    5.700000000000,          !- Vertex 3 Z-coordinate {m}
    11.350000000000,         !- Vertex 4 X-coordinate {m}
    -3.600000000000,         !- Vertex 4 Y-coordinate {m}
    8.550000000000;          !- Vertex 4 Z-coordinate {m}

BuildingSurface:Detailed,
    94C11D,                  !- Name
    Ceiling,                 !- Surface Type
    Interior Ceiling,        !- Construction Name
    APTO02_P3,               !- Zone Name
    Surface,                 !- Outside Boundary Condition
    9162A6,                  !- Outside Boundary Condition Object
    NoSun,                   !- Sun Exposure
    NoWind,                  !- Wind Exposure
    ,                        !- View Factor to Ground
    8,                       !- Number of Vertices
    0.000000000000,          !- Vertex 1 X-coordinate {m}
    6.750000000000,          !- Vertex 1 Y-coordinate {m}
    8.550000000000,          !- Vertex 1 Z-coordinate {m}
    0.000000000000,          !- Vertex 2 X-coordinate {m}
    0.950000000000,          !- Vertex 2 Y-coordinate {m}
    8.550000000000,          !- Vertex 2 Z-coordinate {m}
    1.350000000000,          !- Vertex 3 X-coordinate {m}
    0.950000000000,          !- Vertex 3 Y-coordinate {m}
    8.550000000000,          !- Vertex 3 Z-coordinate {m}
    1.350000000000,          !- Vertex 4 X-coordinate {m}
    0.000000000000,          !- Vertex 4 Y-coordinate {m}
    8.550000000000,          !- Vertex 4 Z-coordinate {m}
    7.450000000000,          !- Vertex 5 X-coordinate {m}
    0.000000000000,          !- Vertex 5 Y-coordinate {m}
    8.550000000000,          !- Vertex 5 Z-coordinate {m}
    7.450000000000,          !- Vertex 6 X-coordinate {m}
    3.600000000000,          !- Vertex 6 Y-coordinate {m}
    8.550000000000,          !- Vertex 6 Z-coordinate {m}
    5.800000000000,          !- Vertex 7 X-coordinate {m}
    3.600000000000,          !- Vertex 7 Y-coordinate {m}
    8.550000000000,          !- Vertex 7 Z-coordinate {m}
    5.800000000000,          !- Vertex 8 X-coordinate {m}
    6.750000000000,          !- Vertex 8 Y-coordinate {m}
    8.550000000000;          !- Vertex 8 Z-coordinate {m}

BuildingSurface:Detailed,
    C7B9A6,                  !- Name
    Wall,                    !- Surface Type
    Interior Wall,           !- Construction Name
    APTO02_P3,               !- Zone Name
    Surface,                 !- Outside Boundary Condition
    3F7A3B,                  !- Outside Boundary Condition Object
    NoSun,                   !- Sun Exposure
    NoWind,                  !- Wind Exposure
    ,                        !- View Factor to Ground
    4,                       !- Number of Vertices
    1.350000000000,          !- Vertex 1 X-coordinate {m}
    0.000000000000,          !- Vertex 1 Y-coordinate {m}
    8.550000000000,          !- Vertex 1 Z-coordinate {m}
    1.350000000000,          !- Vertex 2 X-coordinate {m}
    0.000000000000,          !- Vertex 2 Y-coordinate {m}
    5.700000000000,          !- Vertex 2 Z-coordinate {m}
    7.450000000000,          !- Vertex 3 X-coordinate {m}
    0.000000000000,          !- Vertex 3 Y-coordinate {m}
    5.700000000000,          !- Vertex 3 Z-coordinate {m}
    7.450000000000,          !- Vertex 4 X-coordinate {m}
    0.000000000000,          !- Vertex 4 Y-coordinate {m}
    8.550000000000;          !- Vertex 4 Z-coordinate {m}

BuildingSurface:Detailed,
    3E1F8C,                  !- Name
    Wall,                    !- Surface Type
    Exterior Wall North,     !- Construction Name
    APTO02_P3,               !- Zone Name
    Outdoors,                !- Outside Boundary Condition
    ,                        !- Outside Boundary Condition Object
    SunExposed,              !- Sun Exposure
    WindExposed,             !- Wind Exposure
    ,                        !- View Factor to Ground
    4,                       !- Number of Vertices
    5.800000000000,          !- Vertex 1 X-coordinate {m}
    6.750000000000,          !- Vertex 1 Y-coordinate {m}
    8.550000000000,          !- Vertex 1 Z-coordinate {m}
    5.800000000000,          !- Vertex 2 X-coordinate {m}
    6.750000000000,          !- Vertex 2 Y-coordinate {m}
    5.700000000000,          !- Vertex 2 Z-coordinate {m}
    0.000000000000,          !- Vertex 3 X-coordinate {m}
    6.750000000000,          !- Vertex 3 Y-coordinate {m}
    5.700000000000,          !- Vertex 3 Z-coordinate {m}
    0.000000000000,          !- Vertex 4 X-coordinate {m}
    6.750000000000,          !- Vertex 4 Y-coordinate {m}
    8.550000000000;          !- Vertex 4 Z-coordinate {m}

BuildingSurface:Detailed,
    120AF4,                  !- Name
    Wall,                    !- Surface Type
    Exterior Wall West,      !- Construction Name
    APTO02_P3,               !- Zone Name
    Outdoors,                !- Outside Boundary Condition
    ,                        !- Outside Boundary Condition Object
    SunExposed,              !- Sun Exposure
    WindExposed,             !- Wind Exposure
    ,                        !- View Factor to Ground
    4,                       !- Number of Vertices
    1.350000000000,          !- Vertex 1 X-coordinate {m}
    0.950000000000,          !- Vertex 1 Y-coordinate {m}
    8.550000000000,          !- Vertex 1 Z-coordinate {m}
    1.350000000000,          !- Vertex 2 X-coordinate {m}
    0.950000000000,          !- Vertex 2 Y-coordinate {m}
    5.700000000000,          !- Vertex 2 Z-coordinate {m}
    1.350000000000,          !- Vertex 3 X-coordinate {m}
    0.000000000000,          !- Vertex 3 Y-coordinate {m}
    5.700000000000,          !- Vertex 3 Z-coordinate {m}
    1.350000000000,          !- Vertex 4 X-coordinate {m}
    0.000000000000,          !- Vertex 4 Y-coordinate {m}
    8.550000000000;          !- Vertex 4 Z-coordinate {m}

BuildingSurface:Detailed,
    5155E2,                  !- Name
    Wall,                    !- Surface Type
    Exterior Wall North,     !- Construction Name
    APTO02_P3,               !- Zone Name
    Outdoors,                !- Outside Boundary Condition
    ,                        !- Outside Boundary Condition Object
    SunExposed,              !- Sun Exposure
    WindExposed,             !- Wind Exposure
    ,                        !- View Factor to Ground
    4,                       !- Number of Vertices
    7.450000000000,          !- Vertex 1 X-coordinate {m}
    3.600000000000,          !- Vertex 1 Y-coordinate {m}
    8.550000000000,          !- Vertex 1 Z-coordinate {m}
    7.450000000000,          !- Vertex 2 X-coordinate {m}
    3.600000000000,          !- Vertex 2 Y-coordinate {m}
    5.700000000000,          !- Vertex 2 Z-coordinate {m}
    5.800000000000,          !- Vertex 3 X-coordinate {m}
    3.600000000000,          !- Vertex 3 Y-coordinate {m}
    5.700000000000,          !- Vertex 3 Z-coordinate {m}
    5.800000000000,          !- Vertex 4 X-coordinate {m}
    3.600000000000,          !- Vertex 4 Y-coordinate {m}
    8.550000000000;          !- Vertex 4 Z-coordinate {m}

BuildingSurface:Detailed,
    8C1C3E,                  !- Name
    Wall,                    !- Surface Type
    Exterior Wall East,      !- Construction Name
    APTO02_P3,               !- Zone Name
    Outdoors,                !- Outside Boundary Condition
    ,                        !- Outside Boundary Condition Object
    SunExposed,              !- Sun Exposure
    WindExposed,             !- Wind Exposure
    ,                        !- View Factor to Ground
    4,                       !- Number of Vertices
    5.800000000000,          !- Vertex 1 X-coordinate {m}
    3.600000000000,          !- Vertex 1 Y-coordinate {m}
    8.550000000000,          !- Vertex 1 Z-coordinate {m}
    5.800000000000,          !- Vertex 2 X-coordinate {m}
    3.600000000000,          !- Vertex 2 Y-coordinate {m}
    5.700000000000,          !- Vertex 2 Z-coordinate {m}
    5.800000000000,          !- Vertex 3 X-coordinate {m}
    6.750000000000,          !- Vertex 3 Y-coordinate {m}
    5.700000000000,          !- Vertex 3 Z-coordinate {m}
    5.800000000000,          !- Vertex 4 X-coordinate {m}
    6.750000000000,          !- Vertex 4 Y-coordinate {m}
    8.550000000000;          !- Vertex 4 Z-coordinate {m}

BuildingSurface:Detailed,
    5B50C4,                  !- Name
    Wall,                    !- Surface Type
    Interior Wall,           !- Construction Name
    APTO02_P3,               !- Zone Name
    Surface,                 !- Outside Boundary Condition
    F5E602,                  !- Outside Boundary Condition Object
    NoSun,                   !- Sun Exposure
    NoWind,                  !- Wind Exposure
    ,                        !- View Factor to Ground
    4,                       !- Number of Vertices
    7.450000000000,          !- Vertex 1 X-coordinate {m}
    0.000000000000,          !- Vertex 1 Y-coordinate {m}
    8.550000000000,          !- Vertex 1 Z-coordinate {m}
    7.450000000000,          !- Vertex 2 X-coordinate {m}
    0.000000000000,          !- Vertex 2 Y-coordinate {m}
    5.700000000000,          !- Vertex 2 Z-coordinate {m}
    7.450000000000,          !- Vertex 3 X-coordinate {m}
    3.600000000000,          !- Vertex 3 Y-coordinate {m}
    5.700000000000,          !- Vertex 3 Z-coordinate {m}
    7.450000000000,          !- Vertex 4 X-coordinate {m}
    3.600000000000,          !- Vertex 4 Y-coordinate {m}
    8.550000000000;          !- Vertex 4 Z-coordinate {m}

BuildingSurface:Detailed,
    B81252,                  !- Name
    Wall,                    !- Surface Type
    Exterior Wall South,     !- Construction Name
    APTO02_P3,               !- Zone Name
    Outdoors,                !- Outside Boundary Condition
    ,                        !- Outside Boundary Condition Object
    SunExposed,              !- Sun Exposure
    WindExposed,             !- Wind Exposure
    ,                        !- View Factor to Ground
    4,                       !- Number of Vertices
    0.000000000000,          !- Vertex 1 X-coordinate {m}
    0.950000000000,          !- Vertex 1 Y-coordinate {m}
    8.550000000000,          !- Vertex 1 Z-coordinate {m}
    0.000000000000,          !- Vertex 2 X-coordinate {m}
    0.950000000000,          !- Vertex 2 Y-coordinate {m}
    5.700000000000,          !- Vertex 2 Z-coordinate {m}
    1.350000000000,          !- Vertex 3 X-coordinate {m}
    0.950000000000,          !- Vertex 3 Y-coordinate {m}
    5.700000000000,          !- Vertex 3 Z-coordinate {m}
    1.350000000000,          !- Vertex 4 X-coordinate {m}
    0.950000000000,          !- Vertex 4 Y-coordinate {m}
    8.550000000000;          !- Vertex 4 Z-coordinate {m}

BuildingSurface:Detailed,
    5FE16B,                  !- Name
    Wall,                    !- Surface Type
    Exterior Wall West,      !- Construction Name
    APTO02_P3,               !- Zone Name
    Outdoors,                !- Outside Boundary Condition
    ,                        !- Outside Boundary Condition Object
    SunExposed,              !- Sun Exposure
    WindExposed,             !- Wind Exposure
    ,                        !- View Factor to Ground
    4,                       !- Number of Vertices
    0.000000000000,          !- Vertex 1 X-coordinate {m}
    6.750000000000,          !- Vertex 1 Y-coordinate {m}
    8.550000000000,          !- Vertex 1 Z-coordinate {m}
    0.000000000000,          !- Vertex 2 X-coordinate {m}
    6.750000000000,          !- Vertex 2 Y-coordinate {m}
    5.700000000000,          !- Vertex 2 Z-coordinate {m}
    0.000000000000,          !- Vertex 3 X-coordinate {m}
    0.950000000000,          !- Vertex 3 Y-coordinate {m}
    5.700000000000,          !- Vertex 3 Z-coordinate {m}
    0.000000000000,          !- Vertex 4 X-coordinate {m}
    0.950000000000,          !- Vertex 4 Y-coordinate {m}
    8.550000000000;          !- Vertex 4 Z-coordinate {m}

BuildingSurface:Detailed,
    CD9CF1,                  !- Name
    Floor,                   !- Surface Type
    Interior Floor,          !- Construction Name
    APTO02_P3,               !- Zone Name
    Surface,                 !- Outside Boundary Condition
    BA20AD,                  !- Outside Boundary Condition Object
    NoSun,                   !- Sun Exposure
    NoWind,                  !- Wind Exposure
    ,                        !- View Factor to Ground
    8,                       !- Number of Vertices
    5.800000000000,          !- Vertex 1 X-coordinate {m}
    6.750000000000,          !- Vertex 1 Y-coordinate {m}
    5.700000000000,          !- Vertex 1 Z-coordinate {m}
    5.800000000000,          !- Vertex 2 X-coordinate {m}
    3.600000000000,          !- Vertex 2 Y-coordinate {m}
    5.700000000000,          !- Vertex 2 Z-coordinate {m}
    7.450000000000,          !- Vertex 3 X-coordinate {m}
    3.600000000000,          !- Vertex 3 Y-coordinate {m}
    5.700000000000,          !- Vertex 3 Z-coordinate {m}
    7.450000000000,          !- Vertex 4 X-coordinate {m}
    0.000000000000,          !- Vertex 4 Y-coordinate {m}
    5.700000000000,          !- Vertex 4 Z-coordinate {m}
    1.350000000000,          !- Vertex 5 X-coordinate {m}
    0.000000000000,          !- Vertex 5 Y-coordinate {m}
    5.700000000000,          !- Vertex 5 Z-coordinate {m}
    1.350000000000,          !- Vertex 6 X-coordinate {m}
    0.950000000000,          !- Vertex 6 Y-coordinate {m}
    5.700000000000,          !- Vertex 6 Z-coordinate {m}
    0.000000000000,          !- Vertex 7 X-coordinate {m}
    0.950000000000,          !- Vertex 7 Y-coordinate {m}
    5.700000000000,          !- Vertex 7 Z-coordinate {m}
    0.000000000000,          !- Vertex 8 X-coordinate {m}
    6.750000000000,          !- Vertex 8 Y-coordinate {m}
    5.700000000000;          !- Vertex 8 Z-coordinate {m}

BuildingSurface:Detailed,
    F923DB,                  !- Name
    Ceiling,                 !- Surface Type
    Interior Ceiling,        !- Construction Name
    APTO02_P4,               !- Zone Name
    Surface,                 !- Outside Boundary Condition
    A27A1C,                  !- Outside Boundary Condition Object
    NoSun,                   !- Sun Exposure
    NoWind,                  !- Wind Exposure
    ,                        !- View Factor to Ground
    8,                       !- Number of Vertices
    0.000000000000,          !- Vertex 1 X-coordinate {m}
    6.750000000000,          !- Vertex 1 Y-coordinate {m}
    11.400000000000,         !- Vertex 1 Z-coordinate {m}
    0.000000000000,          !- Vertex 2 X-coordinate {m}
    0.950000000000,          !- Vertex 2 Y-coordinate {m}
    11.400000000000,         !- Vertex 2 Z-coordinate {m}
    1.350000000000,          !- Vertex 3 X-coordinate {m}
    0.950000000000,          !- Vertex 3 Y-coordinate {m}
    11.400000000000,         !- Vertex 3 Z-coordinate {m}
    1.350000000000,          !- Vertex 4 X-coordinate {m}
    0.000000000000,          !- Vertex 4 Y-coordinate {m}
    11.400000000000,         !- Vertex 4 Z-coordinate {m}
    7.450000000000,          !- Vertex 5 X-coordinate {m}
    0.000000000000,          !- Vertex 5 Y-coordinate {m}
    11.400000000000,         !- Vertex 5 Z-coordinate {m}
    7.450000000000,          !- Vertex 6 X-coordinate {m}
    3.600000000000,          !- Vertex 6 Y-coordinate {m}
    11.400000000000,         !- Vertex 6 Z-coordinate {m}
    5.800000000000,          !- Vertex 7 X-coordinate {m}
    3.600000000000,          !- Vertex 7 Y-coordinate {m}
    11.400000000000,         !- Vertex 7 Z-coordinate {m}
    5.800000000000,          !- Vertex 8 X-coordinate {m}
    6.750000000000,          !- Vertex 8 Y-coordinate {m}
    11.400000000000;         !- Vertex 8 Z-coordinate {m}

BuildingSurface:Detailed,
    9E0381,                  !- Name
    Wall,                    !- Surface Type
    Interior Wall,           !- Construction Name
    APTO02_P4,               !- Zone Name
    Surface,                 !- Outside Boundary Condition
    4BBDF3,                  !- Outside Boundary Condition Object
    NoSun,                   !- Sun Exposure
    NoWind,                  !- Wind Exposure
    ,                        !- View Factor to Ground
    4,                       !- Number of Vertices
    1.350000000000,          !- Vertex 1 X-coordinate {m}
    0.000000000000,          !- Vertex 1 Y-coordinate {m}
    11.400000000000,         !- Vertex 1 Z-coordinate {m}
    1.350000000000,          !- Vertex 2 X-coordinate {m}
    0.000000000000,          !- Vertex 2 Y-coordinate {m}
    8.550000000000,          !- Vertex 2 Z-coordinate {m}
    7.450000000000,          !- Vertex 3 X-coordinate {m}
    0.000000000000,          !- Vertex 3 Y-coordinate {m}
    8.550000000000,          !- Vertex 3 Z-coordinate {m}
    7.450000000000,          !- Vertex 4 X-coordinate {m}
    0.000000000000,          !- Vertex 4 Y-coordinate {m}
    11.400000000000;         !- Vertex 4 Z-coordinate {m}

BuildingSurface:Detailed,
    D99C78,                  !- Name
    Wall,                    !- Surface Type
    Exterior Wall North,     !- Construction Name
    APTO02_P4,               !- Zone Name
    Outdoors,                !- Outside Boundary Condition
    ,                        !- Outside Boundary Condition Object
    SunExposed,              !- Sun Exposure
    WindExposed,             !- Wind Exposure
    ,                        !- View Factor to Ground
    4,                       !- Number of Vertices
    5.800000000000,          !- Vertex 1 X-coordinate {m}
    6.750000000000,          !- Vertex 1 Y-coordinate {m}
    11.400000000000,         !- Vertex 1 Z-coordinate {m}
    5.800000000000,          !- Vertex 2 X-coordinate {m}
    6.750000000000,          !- Vertex 2 Y-coordinate {m}
    8.550000000000,          !- Vertex 2 Z-coordinate {m}
    0.000000000000,          !- Vertex 3 X-coordinate {m}
    6.750000000000,          !- Vertex 3 Y-coordinate {m}
    8.550000000000,          !- Vertex 3 Z-coordinate {m}
    0.000000000000,          !- Vertex 4 X-coordinate {m}
    6.750000000000,          !- Vertex 4 Y-coordinate {m}
    11.400000000000;         !- Vertex 4 Z-coordinate {m}

BuildingSurface:Detailed,
    B6F668,                  !- Name
    Wall,                    !- Surface Type
    Exterior Wall East,      !- Construction Name
    APTO02_P4,               !- Zone Name
    Outdoors,                !- Outside Boundary Condition
    ,                        !- Outside Boundary Condition Object
    SunExposed,              !- Sun Exposure
    WindExposed,             !- Wind Exposure
    ,                        !- View Factor to Ground
    4,                       !- Number of Vertices
    1.350000000000,          !- Vertex 1 X-coordinate {m}
    0.950000000000,          !- Vertex 1 Y-coordinate {m}
    11.400000000000,         !- Vertex 1 Z-coordinate {m}
    1.350000000000,          !- Vertex 2 X-coordinate {m}
    0.950000000000,          !- Vertex 2 Y-coordinate {m}
    8.550000000000,          !- Vertex 2 Z-coordinate {m}
    1.350000000000,          !- Vertex 3 X-coordinate {m}
    0.000000000000,          !- Vertex 3 Y-coordinate {m}
    8.550000000000,          !- Vertex 3 Z-coordinate {m}
    1.350000000000,          !- Vertex 4 X-coordinate {m}
    0.000000000000,          !- Vertex 4 Y-coordinate {m}
    11.400000000000;         !- Vertex 4 Z-coordinate {m}

BuildingSurface:Detailed,
    43BC6F,                  !- Name
    Wall,                    !- Surface Type
    Exterior Wall North,     !- Construction Name
    APTO02_P4,               !- Zone Name
    Outdoors,                !- Outside Boundary Condition
    ,                        !- Outside Boundary Condition Object
    SunExposed,              !- Sun Exposure
    WindExposed,             !- Wind Exposure
    ,                        !- View Factor to Ground
    4,                       !- Number of Vertices
    7.450000000000,          !- Vertex 1 X-coordinate {m}
    3.600000000000,          !- Vertex 1 Y-coordinate {m}
    11.400000000000,         !- Vertex 1 Z-coordinate {m}
    7.450000000000,          !- Vertex 2 X-coordinate {m}
    3.600000000000,          !- Vertex 2 Y-coordinate {m}
    8.550000000000,          !- Vertex 2 Z-coordinate {m}
    5.800000000000,          !- Vertex 3 X-coordinate {m}
    3.600000000000,          !- Vertex 3 Y-coordinate {m}
    8.550000000000,          !- Vertex 3 Z-coordinate {m}
    5.800000000000,          !- Vertex 4 X-coordinate {m}
    3.600000000000,          !- Vertex 4 Y-coordinate {m}
    11.400000000000;         !- Vertex 4 Z-coordinate {m}

BuildingSurface:Detailed,
    183FB2,                  !- Name
    Wall,                    !- Surface Type
    Exterior Wall East,      !- Construction Name
    APTO02_P4,               !- Zone Name
    Outdoors,                !- Outside Boundary Condition
    ,                        !- Outside Boundary Condition Object
    SunExposed,              !- Sun Exposure
    WindExposed,             !- Wind Exposure
    ,                        !- View Factor to Ground
    4,                       !- Number of Vertices
    5.800000000000,          !- Vertex 1 X-coordinate {m}
    3.600000000000,          !- Vertex 1 Y-coordinate {m}
    11.400000000000,         !- Vertex 1 Z-coordinate {m}
    5.800000000000,          !- Vertex 2 X-coordinate {m}
    3.600000000000,          !- Vertex 2 Y-coordinate {m}
    8.550000000000,          !- Vertex 2 Z-coordinate {m}
    5.800000000000,          !- Vertex 3 X-coordinate {m}
    6.750000000000,          !- Vertex 3 Y-coordinate {m}
    8.550000000000,          !- Vertex 3 Z-coordinate {m}
    5.800000000000,          !- Vertex 4 X-coordinate {m}
    6.750000000000,          !- Vertex 4 Y-coordinate {m}
    11.400000000000;         !- Vertex 4 Z-coordinate {m}

BuildingSurface:Detailed,
    4CECB1,                  !- Name
    Wall,                    !- Surface Type
    Interior Wall,           !- Construction Name
    APTO02_P4,               !- Zone Name
    Surface,                 !- Outside Boundary Condition
    1EF0EA,                  !- Outside Boundary Condition Object
    NoSun,                   !- Sun Exposure
    NoWind,                  !- Wind Exposure
    ,                        !- View Factor to Ground
    4,                       !- Number of Vertices
    7.450000000000,          !- Vertex 1 X-coordinate {m}
    0.000000000000,          !- Vertex 1 Y-coordinate {m}
    11.400000000000,         !- Vertex 1 Z-coordinate {m}
    7.450000000000,          !- Vertex 2 X-coordinate {m}
    0.000000000000,          !- Vertex 2 Y-coordinate {m}
    8.550000000000,          !- Vertex 2 Z-coordinate {m}
    7.450000000000,          !- Vertex 3 X-coordinate {m}
    3.600000000000,          !- Vertex 3 Y-coordinate {m}
    8.550000000000,          !- Vertex 3 Z-coordinate {m}
    7.450000000000,          !- Vertex 4 X-coordinate {m}
    3.600000000000,          !- Vertex 4 Y-coordinate {m}
    11.400000000000;         !- Vertex 4 Z-coordinate {m}

BuildingSurface:Detailed,
    434FAC,                  !- Name
    Wall,                    !- Surface Type
    Exterior Wall South,     !- Construction Name
    APTO02_P4,               !- Zone Name
    Outdoors,                !- Outside Boundary Condition
    ,                        !- Outside Boundary Condition Object
    SunExposed,              !- Sun Exposure
    WindExposed,             !- Wind Exposure
    ,                        !- View Factor to Ground
    4,                       !- Number of Vertices
    0.000000000000,          !- Vertex 1 X-coordinate {m}
    0.950000000000,          !- Vertex 1 Y-coordinate {m}
    11.400000000000,         !- Vertex 1 Z-coordinate {m}
    0.000000000000,          !- Vertex 2 X-coordinate {m}
    0.950000000000,          !- Vertex 2 Y-coordinate {m}
    8.550000000000,          !- Vertex 2 Z-coordinate {m}
    1.350000000000,          !- Vertex 3 X-coordinate {m}
    0.950000000000,          !- Vertex 3 Y-coordinate {m}
    8.550000000000,          !- Vertex 3 Z-coordinate {m}
    1.350000000000,          !- Vertex 4 X-coordinate {m}
    0.950000000000,          !- Vertex 4 Y-coordinate {m}
    11.400000000000;         !- Vertex 4 Z-coordinate {m}

BuildingSurface:Detailed,
    46D1F6,                  !- Name
    Wall,                    !- Surface Type
    Exterior Wall East,      !- Construction Name
    APTO02_P4,               !- Zone Name
    Outdoors,                !- Outside Boundary Condition
    ,                        !- Outside Boundary Condition Object
    SunExposed,              !- Sun Exposure
    WindExposed,             !- Wind Exposure
    ,                        !- View Factor to Ground
    4,                       !- Number of Vertices
    0.000000000000,          !- Vertex 1 X-coordinate {m}
    6.750000000000,          !- Vertex 1 Y-coordinate {m}
    11.400000000000,         !- Vertex 1 Z-coordinate {m}
    0.000000000000,          !- Vertex 2 X-coordinate {m}
    6.750000000000,          !- Vertex 2 Y-coordinate {m}
    8.550000000000,          !- Vertex 2 Z-coordinate {m}
    0.000000000000,          !- Vertex 3 X-coordinate {m}
    0.950000000000,          !- Vertex 3 Y-coordinate {m}
    8.550000000000,          !- Vertex 3 Z-coordinate {m}
    0.000000000000,          !- Vertex 4 X-coordinate {m}
    0.950000000000,          !- Vertex 4 Y-coordinate {m}
    11.400000000000;         !- Vertex 4 Z-coordinate {m}

BuildingSurface:Detailed,
    9162A6,                  !- Name
    Floor,                   !- Surface Type
    Interior Floor,          !- Construction Name
    APTO02_P4,               !- Zone Name
    Surface,                 !- Outside Boundary Condition
    94C11D,                  !- Outside Boundary Condition Object
    NoSun,                   !- Sun Exposure
    NoWind,                  !- Wind Exposure
    ,                        !- View Factor to Ground
    8,                       !- Number of Vertices
    5.800000000000,          !- Vertex 1 X-coordinate {m}
    6.750000000000,          !- Vertex 1 Y-coordinate {m}
    8.550000000000,          !- Vertex 1 Z-coordinate {m}
    5.800000000000,          !- Vertex 2 X-coordinate {m}
    3.600000000000,          !- Vertex 2 Y-coordinate {m}
    8.550000000000,          !- Vertex 2 Z-coordinate {m}
    7.450000000000,          !- Vertex 3 X-coordinate {m}
    3.600000000000,          !- Vertex 3 Y-coordinate {m}
    8.550000000000,          !- Vertex 3 Z-coordinate {m}
    7.450000000000,          !- Vertex 4 X-coordinate {m}
    0.000000000000,          !- Vertex 4 Y-coordinate {m}
    8.550000000000,          !- Vertex 4 Z-coordinate {m}
    1.350000000000,          !- Vertex 5 X-coordinate {m}
    0.000000000000,          !- Vertex 5 Y-coordinate {m}
    8.550000000000,          !- Vertex 5 Z-coordinate {m}
    1.350000000000,          !- Vertex 6 X-coordinate {m}
    0.950000000000,          !- Vertex 6 Y-coordinate {m}
    8.550000000000,          !- Vertex 6 Z-coordinate {m}
    0.000000000000,          !- Vertex 7 X-coordinate {m}
    0.950000000000,          !- Vertex 7 Y-coordinate {m}
    8.550000000000,          !- Vertex 7 Z-coordinate {m}
    0.000000000000,          !- Vertex 8 X-coordinate {m}
    6.750000000000,          !- Vertex 8 Y-coordinate {m}
    8.550000000000;          !- Vertex 8 Z-coordinate {m}

BuildingSurface:Detailed,
    9E9D18,                  !- Name
    Floor,                   !- Surface Type
    Interior Floor,          !- Construction Name
    CIRCULA_P4,              !- Zone Name
    Surface,                 !- Outside Boundary Condition
    B471E1,                  !- Outside Boundary Condition Object
    NoSun,                   !- Sun Exposure
    NoWind,                  !- Wind Exposure
    ,                        !- View Factor to Ground
    4,                       !- Number of Vertices
    9.700000000000,          !- Vertex 1 X-coordinate {m}
    3.600000000000,          !- Vertex 1 Y-coordinate {m}
    8.550000000000,          !- Vertex 1 Z-coordinate {m}
    9.700000000000,          !- Vertex 2 X-coordinate {m}
    -3.600000000000,         !- Vertex 2 Y-coordinate {m}
    8.550000000000,          !- Vertex 2 Z-coordinate {m}
    7.450000000000,          !- Vertex 3 X-coordinate {m}
    -3.600000000000,         !- Vertex 3 Y-coordinate {m}
    8.550000000000,          !- Vertex 3 Z-coordinate {m}
    7.450000000000,          !- Vertex 4 X-coordinate {m}
    3.600000000000,          !- Vertex 4 Y-coordinate {m}
    8.550000000000;          !- Vertex 4 Z-coordinate {m}

BuildingSurface:Detailed,
    CA1F33,                  !- Name
    Ceiling,                 !- Surface Type
    Interior Ceiling,        !- Construction Name
    CIRCULA_P4,              !- Zone Name
    Surface,                 !- Outside Boundary Condition
    715667,                  !- Outside Boundary Condition Object
    NoSun,                   !- Sun Exposure
    NoWind,                  !- Wind Exposure
    ,                        !- View Factor to Ground
    4,                       !- Number of Vertices
    7.450000000000,          !- Vertex 1 X-coordinate {m}
    3.600000000000,          !- Vertex 1 Y-coordinate {m}
    11.400000000000,         !- Vertex 1 Z-coordinate {m}
    7.450000000000,          !- Vertex 2 X-coordinate {m}
    -3.600000000000,         !- Vertex 2 Y-coordinate {m}
    11.400000000000,         !- Vertex 2 Z-coordinate {m}
    9.700000000000,          !- Vertex 3 X-coordinate {m}
    -3.600000000000,         !- Vertex 3 Y-coordinate {m}
    11.400000000000,         !- Vertex 3 Z-coordinate {m}
    9.700000000000,          !- Vertex 4 X-coordinate {m}
    3.600000000000,          !- Vertex 4 Y-coordinate {m}
    11.400000000000;         !- Vertex 4 Z-coordinate {m}

BuildingSurface:Detailed,
    2000C0,                  !- Name
    Wall,                    !- Surface Type
    Interior Wall,           !- Construction Name
    CIRCULA_P4,              !- Zone Name
    Surface,                 !- Outside Boundary Condition
    7E256B,                  !- Outside Boundary Condition Object
    NoSun,                   !- Sun Exposure
    NoWind,                  !- Wind Exposure
    ,                        !- View Factor to Ground
    4,                       !- Number of Vertices
    9.700000000000,          !- Vertex 1 X-coordinate {m}
    0.000000000000,          !- Vertex 1 Y-coordinate {m}
    11.400000000000,         !- Vertex 1 Z-coordinate {m}
    9.700000000000,          !- Vertex 2 X-coordinate {m}
    0.000000000000,          !- Vertex 2 Y-coordinate {m}
    8.550000000000,          !- Vertex 2 Z-coordinate {m}
    9.700000000000,          !- Vertex 3 X-coordinate {m}
    3.600000000000,          !- Vertex 3 Y-coordinate {m}
    8.550000000000,          !- Vertex 3 Z-coordinate {m}
    9.700000000000,          !- Vertex 4 X-coordinate {m}
    3.600000000000,          !- Vertex 4 Y-coordinate {m}
    11.400000000000;         !- Vertex 4 Z-coordinate {m}

BuildingSurface:Detailed,
    6EF233,                  !- Name
    Wall,                    !- Surface Type
    Exterior Wall North,     !- Construction Name
    CIRCULA_P4,              !- Zone Name
    Outdoors,                !- Outside Boundary Condition
    ,                        !- Outside Boundary Condition Object
    SunExposed,              !- Sun Exposure
    WindExposed,             !- Wind Exposure
    ,                        !- View Factor to Ground
    4,                       !- Number of Vertices
    7.450000000000,          !- Vertex 1 X-coordinate {m}
    -3.600000000000,         !- Vertex 1 Y-coordinate {m}
    11.400000000000,         !- Vertex 1 Z-coordinate {m}
    7.450000000000,          !- Vertex 2 X-coordinate {m}
    -3.600000000000,         !- Vertex 2 Y-coordinate {m}
    8.550000000000,          !- Vertex 2 Z-coordinate {m}
    9.700000000000,          !- Vertex 3 X-coordinate {m}
    -3.600000000000,         !- Vertex 3 Y-coordinate {m}
    8.550000000000,          !- Vertex 3 Z-coordinate {m}
    9.700000000000,          !- Vertex 4 X-coordinate {m}
    -3.600000000000,         !- Vertex 4 Y-coordinate {m}
    11.400000000000;         !- Vertex 4 Z-coordinate {m}

BuildingSurface:Detailed,
    62BA52,                  !- Name
    Wall,                    !- Surface Type
    Interior Wall,           !- Construction Name
    CIRCULA_P4,              !- Zone Name
    Surface,                 !- Outside Boundary Condition
    E61F42,                  !- Outside Boundary Condition Object
    NoSun,                   !- Sun Exposure
    NoWind,                  !- Wind Exposure
    ,                        !- View Factor to Ground
    4,                       !- Number of Vertices
    7.450000000000,          !- Vertex 1 X-coordinate {m}
    0.000000000000,          !- Vertex 1 Y-coordinate {m}
    11.400000000000,         !- Vertex 1 Z-coordinate {m}
    7.450000000000,          !- Vertex 2 X-coordinate {m}
    0.000000000000,          !- Vertex 2 Y-coordinate {m}
    8.550000000000,          !- Vertex 2 Z-coordinate {m}
    7.450000000000,          !- Vertex 3 X-coordinate {m}
    -3.600000000000,         !- Vertex 3 Y-coordinate {m}
    8.550000000000,          !- Vertex 3 Z-coordinate {m}
    7.450000000000,          !- Vertex 4 X-coordinate {m}
    -3.600000000000,         !- Vertex 4 Y-coordinate {m}
    11.400000000000;         !- Vertex 4 Z-coordinate {m}

BuildingSurface:Detailed,
    6CA7E4,                  !- Name
    Wall,                    !- Surface Type
    Exterior Wall South,     !- Construction Name
    CIRCULA_P4,              !- Zone Name
    Outdoors,                !- Outside Boundary Condition
    ,                        !- Outside Boundary Condition Object
    SunExposed,              !- Sun Exposure
    WindExposed,             !- Wind Exposure
    ,                        !- View Factor to Ground
    4,                       !- Number of Vertices
    9.700000000000,          !- Vertex 1 X-coordinate {m}
    3.600000000000,          !- Vertex 1 Y-coordinate {m}
    11.400000000000,         !- Vertex 1 Z-coordinate {m}
    9.700000000000,          !- Vertex 2 X-coordinate {m}
    3.600000000000,          !- Vertex 2 Y-coordinate {m}
    8.550000000000,          !- Vertex 2 Z-coordinate {m}
    7.450000000000,          !- Vertex 3 X-coordinate {m}
    3.600000000000,          !- Vertex 3 Y-coordinate {m}
    8.550000000000,          !- Vertex 3 Z-coordinate {m}
    7.450000000000,          !- Vertex 4 X-coordinate {m}
    3.600000000000,          !- Vertex 4 Y-coordinate {m}
    11.400000000000;         !- Vertex 4 Z-coordinate {m}

BuildingSurface:Detailed,
    1EF0EA,                  !- Name
    Wall,                    !- Surface Type
    Interior Wall,           !- Construction Name
    CIRCULA_P4,              !- Zone Name
    Surface,                 !- Outside Boundary Condition
    4CECB1,                  !- Outside Boundary Condition Object
    NoSun,                   !- Sun Exposure
    NoWind,                  !- Wind Exposure
    ,                        !- View Factor to Ground
    4,                       !- Number of Vertices
    7.450000000000,          !- Vertex 1 X-coordinate {m}
    3.600000000000,          !- Vertex 1 Y-coordinate {m}
    11.400000000000,         !- Vertex 1 Z-coordinate {m}
    7.450000000000,          !- Vertex 2 X-coordinate {m}
    3.600000000000,          !- Vertex 2 Y-coordinate {m}
    8.550000000000,          !- Vertex 2 Z-coordinate {m}
    7.450000000000,          !- Vertex 3 X-coordinate {m}
    0.000000000000,          !- Vertex 3 Y-coordinate {m}
    8.550000000000,          !- Vertex 3 Z-coordinate {m}
    7.450000000000,          !- Vertex 4 X-coordinate {m}
    0.000000000000,          !- Vertex 4 Y-coordinate {m}
    11.400000000000;         !- Vertex 4 Z-coordinate {m}

BuildingSurface:Detailed,
    BC408F,                  !- Name
    Wall,                    !- Surface Type
    Interior Wall,           !- Construction Name
    CIRCULA_P4,              !- Zone Name
    Surface,                 !- Outside Boundary Condition
    8DF3B9,                  !- Outside Boundary Condition Object
    NoSun,                   !- Sun Exposure
    NoWind,                  !- Wind Exposure
    ,                        !- View Factor to Ground
    4,                       !- Number of Vertices
    9.700000000000,          !- Vertex 1 X-coordinate {m}
    -3.600000000000,         !- Vertex 1 Y-coordinate {m}
    11.400000000000,         !- Vertex 1 Z-coordinate {m}
    9.700000000000,          !- Vertex 2 X-coordinate {m}
    -3.600000000000,         !- Vertex 2 Y-coordinate {m}
    8.550000000000,          !- Vertex 2 Z-coordinate {m}
    9.700000000000,          !- Vertex 3 X-coordinate {m}
    0.000000000000,          !- Vertex 3 Y-coordinate {m}
    8.550000000000,          !- Vertex 3 Z-coordinate {m}
    9.700000000000,          !- Vertex 4 X-coordinate {m}
    0.000000000000,          !- Vertex 4 Y-coordinate {m}
    11.400000000000;         !- Vertex 4 Z-coordinate {m}

BuildingSurface:Detailed,
    8D7E48,                  !- Name
    Floor,                   !- Surface Type
    Interior Floor,          !- Construction Name
    APTO03_P4,               !- Zone Name
    Surface,                 !- Outside Boundary Condition
    C1DCE0,                  !- Outside Boundary Condition Object
    NoSun,                   !- Sun Exposure
    NoWind,                  !- Wind Exposure
    ,                        !- View Factor to Ground
    8,                       !- Number of Vertices
    17.150000000000,         !- Vertex 1 X-coordinate {m}
    6.750000000000,          !- Vertex 1 Y-coordinate {m}
    8.550000000000,          !- Vertex 1 Z-coordinate {m}
    17.150000000000,         !- Vertex 2 X-coordinate {m}
    0.950000000000,          !- Vertex 2 Y-coordinate {m}
    8.550000000000,          !- Vertex 2 Z-coordinate {m}
    15.800000000000,         !- Vertex 3 X-coordinate {m}
    0.950000000000,          !- Vertex 3 Y-coordinate {m}
    8.550000000000,          !- Vertex 3 Z-coordinate {m}
    15.800000000000,         !- Vertex 4 X-coordinate {m}
    0.000000000000,          !- Vertex 4 Y-coordinate {m}
    8.550000000000,          !- Vertex 4 Z-coordinate {m}
    9.700000000000,          !- Vertex 5 X-coordinate {m}
    0.000000000000,          !- Vertex 5 Y-coordinate {m}
    8.550000000000,          !- Vertex 5 Z-coordinate {m}
    9.700000000000,          !- Vertex 6 X-coordinate {m}
    3.600000000000,          !- Vertex 6 Y-coordinate {m}
    8.550000000000,          !- Vertex 6 Z-coordinate {m}
    11.350000000000,         !- Vertex 7 X-coordinate {m}
    3.600000000000,          !- Vertex 7 Y-coordinate {m}
    8.550000000000,          !- Vertex 7 Z-coordinate {m}
    11.350000000000,         !- Vertex 8 X-coordinate {m}
    6.750000000000,          !- Vertex 8 Y-coordinate {m}
    8.550000000000;          !- Vertex 8 Z-coordinate {m}

BuildingSurface:Detailed,
    7695FE,                  !- Name
    Ceiling,                 !- Surface Type
    Interior Ceiling,        !- Construction Name
    APTO03_P4,               !- Zone Name
    Surface,                 !- Outside Boundary Condition
    43D9C3,                  !- Outside Boundary Condition Object
    NoSun,                   !- Sun Exposure
    NoWind,                  !- Wind Exposure
    ,                        !- View Factor to Ground
    8,                       !- Number of Vertices
    11.350000000000,         !- Vertex 1 X-coordinate {m}
    6.750000000000,          !- Vertex 1 Y-coordinate {m}
    11.400000000000,         !- Vertex 1 Z-coordinate {m}
    11.350000000000,         !- Vertex 2 X-coordinate {m}
    3.600000000000,          !- Vertex 2 Y-coordinate {m}
    11.400000000000,         !- Vertex 2 Z-coordinate {m}
    9.700000000000,          !- Vertex 3 X-coordinate {m}
    3.600000000000,          !- Vertex 3 Y-coordinate {m}
    11.400000000000,         !- Vertex 3 Z-coordinate {m}
    9.700000000000,          !- Vertex 4 X-coordinate {m}
    0.000000000000,          !- Vertex 4 Y-coordinate {m}
    11.400000000000,         !- Vertex 4 Z-coordinate {m}
    15.800000000000,         !- Vertex 5 X-coordinate {m}
    0.000000000000,          !- Vertex 5 Y-coordinate {m}
    11.400000000000,         !- Vertex 5 Z-coordinate {m}
    15.800000000000,         !- Vertex 6 X-coordinate {m}
    0.950000000000,          !- Vertex 6 Y-coordinate {m}
    11.400000000000,         !- Vertex 6 Z-coordinate {m}
    17.150000000000,         !- Vertex 7 X-coordinate {m}
    0.950000000000,          !- Vertex 7 Y-coordinate {m}
    11.400000000000,         !- Vertex 7 Z-coordinate {m}
    17.150000000000,         !- Vertex 8 X-coordinate {m}
    6.750000000000,          !- Vertex 8 Y-coordinate {m}
    11.400000000000;         !- Vertex 8 Z-coordinate {m}

BuildingSurface:Detailed,
    7E256B,                  !- Name
    Wall,                    !- Surface Type
    Interior Wall,           !- Construction Name
    APTO03_P4,               !- Zone Name
    Surface,                 !- Outside Boundary Condition
    2000C0,                  !- Outside Boundary Condition Object
    NoSun,                   !- Sun Exposure
    NoWind,                  !- Wind Exposure
    ,                        !- View Factor to Ground
    4,                       !- Number of Vertices
    9.700000000000,          !- Vertex 1 X-coordinate {m}
    3.600000000000,          !- Vertex 1 Y-coordinate {m}
    11.400000000000,         !- Vertex 1 Z-coordinate {m}
    9.700000000000,          !- Vertex 2 X-coordinate {m}
    3.600000000000,          !- Vertex 2 Y-coordinate {m}
    8.550000000000,          !- Vertex 2 Z-coordinate {m}
    9.700000000000,          !- Vertex 3 X-coordinate {m}
    0.000000000000,          !- Vertex 3 Y-coordinate {m}
    8.550000000000,          !- Vertex 3 Z-coordinate {m}
    9.700000000000,          !- Vertex 4 X-coordinate {m}
    0.000000000000,          !- Vertex 4 Y-coordinate {m}
    11.400000000000;         !- Vertex 4 Z-coordinate {m}

BuildingSurface:Detailed,
    E2DFFC,                  !- Name
    Wall,                    !- Surface Type
    Exterior Wall North,     !- Construction Name
    APTO03_P4,               !- Zone Name
    Outdoors,                !- Outside Boundary Condition
    ,                        !- Outside Boundary Condition Object
    SunExposed,              !- Sun Exposure
    WindExposed,             !- Wind Exposure
    ,                        !- View Factor to Ground
    4,                       !- Number of Vertices
    11.350000000000,         !- Vertex 1 X-coordinate {m}
    3.600000000000,          !- Vertex 1 Y-coordinate {m}
    11.400000000000,         !- Vertex 1 Z-coordinate {m}
    11.350000000000,         !- Vertex 2 X-coordinate {m}
    3.600000000000,          !- Vertex 2 Y-coordinate {m}
    8.550000000000,          !- Vertex 2 Z-coordinate {m}
    9.700000000000,          !- Vertex 3 X-coordinate {m}
    3.600000000000,          !- Vertex 3 Y-coordinate {m}
    8.550000000000,          !- Vertex 3 Z-coordinate {m}
    9.700000000000,          !- Vertex 4 X-coordinate {m}
    3.600000000000,          !- Vertex 4 Y-coordinate {m}
    11.400000000000;         !- Vertex 4 Z-coordinate {m}

BuildingSurface:Detailed,
    50A815,                  !- Name
    Wall,                    !- Surface Type
    Exterior Wall West,      !- Construction Name
    APTO03_P4,               !- Zone Name
    Outdoors,                !- Outside Boundary Condition
    ,                        !- Outside Boundary Condition Object
    SunExposed,              !- Sun Exposure
    WindExposed,             !- Wind Exposure
    ,                        !- View Factor to Ground
    4,                       !- Number of Vertices
    11.350000000000,         !- Vertex 1 X-coordinate {m}
    6.750000000000,          !- Vertex 1 Y-coordinate {m}
    11.400000000000,         !- Vertex 1 Z-coordinate {m}
    11.350000000000,         !- Vertex 2 X-coordinate {m}
    6.750000000000,          !- Vertex 2 Y-coordinate {m}
    8.550000000000,          !- Vertex 2 Z-coordinate {m}
    11.350000000000,         !- Vertex 3 X-coordinate {m}
    3.600000000000,          !- Vertex 3 Y-coordinate {m}
    8.550000000000,          !- Vertex 3 Z-coordinate {m}
    11.350000000000,         !- Vertex 4 X-coordinate {m}
    3.600000000000,          !- Vertex 4 Y-coordinate {m}
    11.400000000000;         !- Vertex 4 Z-coordinate {m}

BuildingSurface:Detailed,
    656E9E,                  !- Name
    Wall,                    !- Surface Type
    Exterior Wall North,     !- Construction Name
    APTO03_P4,               !- Zone Name
    Outdoors,                !- Outside Boundary Condition
    ,                        !- Outside Boundary Condition Object
    SunExposed,              !- Sun Exposure
    WindExposed,             !- Wind Exposure
    ,                        !- View Factor to Ground
    4,                       !- Number of Vertices
    17.150000000000,         !- Vertex 1 X-coordinate {m}
    6.750000000000,          !- Vertex 1 Y-coordinate {m}
    11.400000000000,         !- Vertex 1 Z-coordinate {m}
    17.150000000000,         !- Vertex 2 X-coordinate {m}
    6.750000000000,          !- Vertex 2 Y-coordinate {m}
    8.550000000000,          !- Vertex 2 Z-coordinate {m}
    11.350000000000,         !- Vertex 3 X-coordinate {m}
    6.750000000000,          !- Vertex 3 Y-coordinate {m}
    8.550000000000,          !- Vertex 3 Z-coordinate {m}
    11.350000000000,         !- Vertex 4 X-coordinate {m}
    6.750000000000,          !- Vertex 4 Y-coordinate {m}
    11.400000000000;         !- Vertex 4 Z-coordinate {m}

BuildingSurface:Detailed,
    A4498D,                  !- Name
    Wall,                    !- Surface Type
    Exterior Wall East,      !- Construction Name
    APTO03_P4,               !- Zone Name
    Outdoors,                !- Outside Boundary Condition
    ,                        !- Outside Boundary Condition Object
    SunExposed,              !- Sun Exposure
    WindExposed,             !- Wind Exposure
    ,                        !- View Factor to Ground
    4,                       !- Number of Vertices
    17.150000000000,         !- Vertex 1 X-coordinate {m}
    0.950000000000,          !- Vertex 1 Y-coordinate {m}
    11.400000000000,         !- Vertex 1 Z-coordinate {m}
    17.150000000000,         !- Vertex 2 X-coordinate {m}
    0.950000000000,          !- Vertex 2 Y-coordinate {m}
    8.550000000000,          !- Vertex 2 Z-coordinate {m}
    17.150000000000,         !- Vertex 3 X-coordinate {m}
    6.750000000000,          !- Vertex 3 Y-coordinate {m}
    8.550000000000,          !- Vertex 3 Z-coordinate {m}
    17.150000000000,         !- Vertex 4 X-coordinate {m}
    6.750000000000,          !- Vertex 4 Y-coordinate {m}
    11.400000000000;         !- Vertex 4 Z-coordinate {m}

BuildingSurface:Detailed,
    AFE411,                  !- Name
    Wall,                    !- Surface Type
    Exterior Wall South,     !- Construction Name
    APTO03_P4,               !- Zone Name
    Outdoors,                !- Outside Boundary Condition
    ,                        !- Outside Boundary Condition Object
    SunExposed,              !- Sun Exposure
    WindExposed,             !- Wind Exposure
    ,                        !- View Factor to Ground
    4,                       !- Number of Vertices
    15.800000000000,         !- Vertex 1 X-coordinate {m}
    0.950000000000,          !- Vertex 1 Y-coordinate {m}
    11.400000000000,         !- Vertex 1 Z-coordinate {m}
    15.800000000000,         !- Vertex 2 X-coordinate {m}
    0.950000000000,          !- Vertex 2 Y-coordinate {m}
    8.550000000000,          !- Vertex 2 Z-coordinate {m}
    17.150000000000,         !- Vertex 3 X-coordinate {m}
    0.950000000000,          !- Vertex 3 Y-coordinate {m}
    8.550000000000,          !- Vertex 3 Z-coordinate {m}
    17.150000000000,         !- Vertex 4 X-coordinate {m}
    0.950000000000,          !- Vertex 4 Y-coordinate {m}
    11.400000000000;         !- Vertex 4 Z-coordinate {m}

BuildingSurface:Detailed,
    5AA1A7,                  !- Name
    Wall,                    !- Surface Type
    Exterior Wall East,      !- Construction Name
    APTO03_P4,               !- Zone Name
    Outdoors,                !- Outside Boundary Condition
    ,                        !- Outside Boundary Condition Object
    SunExposed,              !- Sun Exposure
    WindExposed,             !- Wind Exposure
    ,                        !- View Factor to Ground
    4,                       !- Number of Vertices
    15.800000000000,         !- Vertex 1 X-coordinate {m}
    0.000000000000,          !- Vertex 1 Y-coordinate {m}
    11.400000000000,         !- Vertex 1 Z-coordinate {m}
    15.800000000000,         !- Vertex 2 X-coordinate {m}
    0.000000000000,          !- Vertex 2 Y-coordinate {m}
    8.550000000000,          !- Vertex 2 Z-coordinate {m}
    15.800000000000,         !- Vertex 3 X-coordinate {m}
    0.950000000000,          !- Vertex 3 Y-coordinate {m}
    8.550000000000,          !- Vertex 3 Z-coordinate {m}
    15.800000000000,         !- Vertex 4 X-coordinate {m}
    0.950000000000,          !- Vertex 4 Y-coordinate {m}
    11.400000000000;         !- Vertex 4 Z-coordinate {m}

BuildingSurface:Detailed,
    572680,                  !- Name
    Wall,                    !- Surface Type
    Interior Wall,           !- Construction Name
    APTO03_P4,               !- Zone Name
    Surface,                 !- Outside Boundary Condition
    3BBAAE,                  !- Outside Boundary Condition Object
    NoSun,                   !- Sun Exposure
    NoWind,                  !- Wind Exposure
    ,                        !- View Factor to Ground
    4,                       !- Number of Vertices
    9.700000000000,          !- Vertex 1 X-coordinate {m}
    0.000000000000,          !- Vertex 1 Y-coordinate {m}
    11.400000000000,         !- Vertex 1 Z-coordinate {m}
    9.700000000000,          !- Vertex 2 X-coordinate {m}
    0.000000000000,          !- Vertex 2 Y-coordinate {m}
    8.550000000000,          !- Vertex 2 Z-coordinate {m}
    15.800000000000,         !- Vertex 3 X-coordinate {m}
    0.000000000000,          !- Vertex 3 Y-coordinate {m}
    8.550000000000,          !- Vertex 3 Z-coordinate {m}
    15.800000000000,         !- Vertex 4 X-coordinate {m}
    0.000000000000,          !- Vertex 4 Y-coordinate {m}
    11.400000000000;         !- Vertex 4 Z-coordinate {m}

BuildingSurface:Detailed,
    DAE079,                  !- Name
    Wall,                    !- Surface Type
    Exterior Wall South,     !- Construction Name
    APTO01_P4,               !- Zone Name
    Outdoors,                !- Outside Boundary Condition
    ,                        !- Outside Boundary Condition Object
    SunExposed,              !- Sun Exposure
    WindExposed,             !- Wind Exposure
    ,                        !- View Factor to Ground
    4,                       !- Number of Vertices
    5.800000000000,          !- Vertex 1 X-coordinate {m}
    -3.600000000000,         !- Vertex 1 Y-coordinate {m}
    11.400000000000,         !- Vertex 1 Z-coordinate {m}
    5.800000000000,          !- Vertex 2 X-coordinate {m}
    -3.600000000000,         !- Vertex 2 Y-coordinate {m}
    8.550000000000,          !- Vertex 2 Z-coordinate {m}
    7.450000000000,          !- Vertex 3 X-coordinate {m}
    -3.600000000000,         !- Vertex 3 Y-coordinate {m}
    8.550000000000,          !- Vertex 3 Z-coordinate {m}
    7.450000000000,          !- Vertex 4 X-coordinate {m}
    -3.600000000000,         !- Vertex 4 Y-coordinate {m}
    11.400000000000;         !- Vertex 4 Z-coordinate {m}

BuildingSurface:Detailed,
    9F346B,                  !- Name
    Wall,                    !- Surface Type
    Exterior Wall South,     !- Construction Name
    APTO01_P4,               !- Zone Name
    Outdoors,                !- Outside Boundary Condition
    ,                        !- Outside Boundary Condition Object
    SunExposed,              !- Sun Exposure
    WindExposed,             !- Wind Exposure
    ,                        !- View Factor to Ground
    4,                       !- Number of Vertices
    0.000000000000,          !- Vertex 1 X-coordinate {m}
    -6.750000000000,         !- Vertex 1 Y-coordinate {m}
    11.400000000000,         !- Vertex 1 Z-coordinate {m}
    0.000000000000,          !- Vertex 2 X-coordinate {m}
    -6.750000000000,         !- Vertex 2 Y-coordinate {m}
    8.550000000000,          !- Vertex 2 Z-coordinate {m}
    5.800000000000,          !- Vertex 3 X-coordinate {m}
    -6.750000000000,         !- Vertex 3 Y-coordinate {m}
    8.550000000000,          !- Vertex 3 Z-coordinate {m}
    5.800000000000,          !- Vertex 4 X-coordinate {m}
    -6.750000000000,         !- Vertex 4 Y-coordinate {m}
    11.400000000000;         !- Vertex 4 Z-coordinate {m}

BuildingSurface:Detailed,
    E61F42,                  !- Name
    Wall,                    !- Surface Type
    Interior Wall,           !- Construction Name
    APTO01_P4,               !- Zone Name
    Surface,                 !- Outside Boundary Condition
    62BA52,                  !- Outside Boundary Condition Object
    NoSun,                   !- Sun Exposure
    NoWind,                  !- Wind Exposure
    ,                        !- View Factor to Ground
    4,                       !- Number of Vertices
    7.450000000000,          !- Vertex 1 X-coordinate {m}
    -3.600000000000,         !- Vertex 1 Y-coordinate {m}
    11.400000000000,         !- Vertex 1 Z-coordinate {m}
    7.450000000000,          !- Vertex 2 X-coordinate {m}
    -3.600000000000,         !- Vertex 2 Y-coordinate {m}
    8.550000000000,          !- Vertex 2 Z-coordinate {m}
    7.450000000000,          !- Vertex 3 X-coordinate {m}
    0.000000000000,          !- Vertex 3 Y-coordinate {m}
    8.550000000000,          !- Vertex 3 Z-coordinate {m}
    7.450000000000,          !- Vertex 4 X-coordinate {m}
    0.000000000000,          !- Vertex 4 Y-coordinate {m}
    11.400000000000;         !- Vertex 4 Z-coordinate {m}

BuildingSurface:Detailed,
    A585D3,                  !- Name
    Wall,                    !- Surface Type
    Exterior Wall North,     !- Construction Name
    APTO01_P4,               !- Zone Name
    Outdoors,                !- Outside Boundary Condition
    ,                        !- Outside Boundary Condition Object
    SunExposed,              !- Sun Exposure
    WindExposed,             !- Wind Exposure
    ,                        !- View Factor to Ground
    4,                       !- Number of Vertices
    1.350000000000,          !- Vertex 1 X-coordinate {m}
    -0.950000000000,         !- Vertex 1 Y-coordinate {m}
    11.400000000000,         !- Vertex 1 Z-coordinate {m}
    1.350000000000,          !- Vertex 2 X-coordinate {m}
    -0.950000000000,         !- Vertex 2 Y-coordinate {m}
    8.550000000000,          !- Vertex 2 Z-coordinate {m}
    0.000000000000,          !- Vertex 3 X-coordinate {m}
    -0.950000000000,         !- Vertex 3 Y-coordinate {m}
    8.550000000000,          !- Vertex 3 Z-coordinate {m}
    0.000000000000,          !- Vertex 4 X-coordinate {m}
    -0.950000000000,         !- Vertex 4 Y-coordinate {m}
    11.400000000000;         !- Vertex 4 Z-coordinate {m}

BuildingSurface:Detailed,
    C1C0E8,                  !- Name
    Ceiling,                 !- Surface Type
    Interior Ceiling,        !- Construction Name
    APTO01_P4,               !- Zone Name
    Surface,                 !- Outside Boundary Condition
    E1B495,                  !- Outside Boundary Condition Object
    NoSun,                   !- Sun Exposure
    NoWind,                  !- Wind Exposure
    ,                        !- View Factor to Ground
    8,                       !- Number of Vertices
    0.000000000000,          !- Vertex 1 X-coordinate {m}
    -0.950000000000,         !- Vertex 1 Y-coordinate {m}
    11.400000000000,         !- Vertex 1 Z-coordinate {m}
    0.000000000000,          !- Vertex 2 X-coordinate {m}
    -6.750000000000,         !- Vertex 2 Y-coordinate {m}
    11.400000000000,         !- Vertex 2 Z-coordinate {m}
    5.800000000000,          !- Vertex 3 X-coordinate {m}
    -6.750000000000,         !- Vertex 3 Y-coordinate {m}
    11.400000000000,         !- Vertex 3 Z-coordinate {m}
    5.800000000000,          !- Vertex 4 X-coordinate {m}
    -3.600000000000,         !- Vertex 4 Y-coordinate {m}
    11.400000000000,         !- Vertex 4 Z-coordinate {m}
    7.450000000000,          !- Vertex 5 X-coordinate {m}
    -3.600000000000,         !- Vertex 5 Y-coordinate {m}
    11.400000000000,         !- Vertex 5 Z-coordinate {m}
    7.450000000000,          !- Vertex 6 X-coordinate {m}
    0.000000000000,          !- Vertex 6 Y-coordinate {m}
    11.400000000000,         !- Vertex 6 Z-coordinate {m}
    1.350000000000,          !- Vertex 7 X-coordinate {m}
    0.000000000000,          !- Vertex 7 Y-coordinate {m}
    11.400000000000,         !- Vertex 7 Z-coordinate {m}
    1.350000000000,          !- Vertex 8 X-coordinate {m}
    -0.950000000000,         !- Vertex 8 Y-coordinate {m}
    11.400000000000;         !- Vertex 8 Z-coordinate {m}

BuildingSurface:Detailed,
    40384D,                  !- Name
    Wall,                    !- Surface Type
    Exterior Wall West,      !- Construction Name
    APTO01_P4,               !- Zone Name
    Outdoors,                !- Outside Boundary Condition
    ,                        !- Outside Boundary Condition Object
    SunExposed,              !- Sun Exposure
    WindExposed,             !- Wind Exposure
    ,                        !- View Factor to Ground
    4,                       !- Number of Vertices
    0.000000000000,          !- Vertex 1 X-coordinate {m}
    -0.950000000000,         !- Vertex 1 Y-coordinate {m}
    11.400000000000,         !- Vertex 1 Z-coordinate {m}
    0.000000000000,          !- Vertex 2 X-coordinate {m}
    -0.950000000000,         !- Vertex 2 Y-coordinate {m}
    8.550000000000,          !- Vertex 2 Z-coordinate {m}
    0.000000000000,          !- Vertex 3 X-coordinate {m}
    -6.750000000000,         !- Vertex 3 Y-coordinate {m}
    8.550000000000,          !- Vertex 3 Z-coordinate {m}
    0.000000000000,          !- Vertex 4 X-coordinate {m}
    -6.750000000000,         !- Vertex 4 Y-coordinate {m}
    11.400000000000;         !- Vertex 4 Z-coordinate {m}

BuildingSurface:Detailed,
    618A3A,                  !- Name
    Wall,                    !- Surface Type
    Exterior Wall West,      !- Construction Name
    APTO01_P4,               !- Zone Name
    Outdoors,                !- Outside Boundary Condition
    ,                        !- Outside Boundary Condition Object
    SunExposed,              !- Sun Exposure
    WindExposed,             !- Wind Exposure
    ,                        !- View Factor to Ground
    4,                       !- Number of Vertices
    1.350000000000,          !- Vertex 1 X-coordinate {m}
    0.000000000000,          !- Vertex 1 Y-coordinate {m}
    11.400000000000,         !- Vertex 1 Z-coordinate {m}
    1.350000000000,          !- Vertex 2 X-coordinate {m}
    0.000000000000,          !- Vertex 2 Y-coordinate {m}
    8.550000000000,          !- Vertex 2 Z-coordinate {m}
    1.350000000000,          !- Vertex 3 X-coordinate {m}
    -0.950000000000,         !- Vertex 3 Y-coordinate {m}
    8.550000000000,          !- Vertex 3 Z-coordinate {m}
    1.350000000000,          !- Vertex 4 X-coordinate {m}
    -0.950000000000,         !- Vertex 4 Y-coordinate {m}
    11.400000000000;         !- Vertex 4 Z-coordinate {m}

BuildingSurface:Detailed,
    4BBDF3,                  !- Name
    Wall,                    !- Surface Type
    Interior Wall,           !- Construction Name
    APTO01_P4,               !- Zone Name
    Surface,                 !- Outside Boundary Condition
    9E0381,                  !- Outside Boundary Condition Object
    NoSun,                   !- Sun Exposure
    NoWind,                  !- Wind Exposure
    ,                        !- View Factor to Ground
    4,                       !- Number of Vertices
    7.450000000000,          !- Vertex 1 X-coordinate {m}
    0.000000000000,          !- Vertex 1 Y-coordinate {m}
    11.400000000000,         !- Vertex 1 Z-coordinate {m}
    7.450000000000,          !- Vertex 2 X-coordinate {m}
    0.000000000000,          !- Vertex 2 Y-coordinate {m}
    8.550000000000,          !- Vertex 2 Z-coordinate {m}
    1.350000000000,          !- Vertex 3 X-coordinate {m}
    0.000000000000,          !- Vertex 3 Y-coordinate {m}
    8.550000000000,          !- Vertex 3 Z-coordinate {m}
    1.350000000000,          !- Vertex 4 X-coordinate {m}
    0.000000000000,          !- Vertex 4 Y-coordinate {m}
    11.400000000000;         !- Vertex 4 Z-coordinate {m}

BuildingSurface:Detailed,
    E77F82,                  !- Name
    Floor,                   !- Surface Type
    Interior Floor,          !- Construction Name
    APTO01_P4,               !- Zone Name
    Surface,                 !- Outside Boundary Condition
    7DBCBC,                  !- Outside Boundary Condition Object
    NoSun,                   !- Sun Exposure
    NoWind,                  !- Wind Exposure
    ,                        !- View Factor to Ground
    8,                       !- Number of Vertices
    7.450000000000,          !- Vertex 1 X-coordinate {m}
    0.000000000000,          !- Vertex 1 Y-coordinate {m}
    8.550000000000,          !- Vertex 1 Z-coordinate {m}
    7.450000000000,          !- Vertex 2 X-coordinate {m}
    -3.600000000000,         !- Vertex 2 Y-coordinate {m}
    8.550000000000,          !- Vertex 2 Z-coordinate {m}
    5.800000000000,          !- Vertex 3 X-coordinate {m}
    -3.600000000000,         !- Vertex 3 Y-coordinate {m}
    8.550000000000,          !- Vertex 3 Z-coordinate {m}
    5.800000000000,          !- Vertex 4 X-coordinate {m}
    -6.750000000000,         !- Vertex 4 Y-coordinate {m}
    8.550000000000,          !- Vertex 4 Z-coordinate {m}
    0.000000000000,          !- Vertex 5 X-coordinate {m}
    -6.750000000000,         !- Vertex 5 Y-coordinate {m}
    8.550000000000,          !- Vertex 5 Z-coordinate {m}
    0.000000000000,          !- Vertex 6 X-coordinate {m}
    -0.950000000000,         !- Vertex 6 Y-coordinate {m}
    8.550000000000,          !- Vertex 6 Z-coordinate {m}
    1.350000000000,          !- Vertex 7 X-coordinate {m}
    -0.950000000000,         !- Vertex 7 Y-coordinate {m}
    8.550000000000,          !- Vertex 7 Z-coordinate {m}
    1.350000000000,          !- Vertex 8 X-coordinate {m}
    0.000000000000,          !- Vertex 8 Y-coordinate {m}
    8.550000000000;          !- Vertex 8 Z-coordinate {m}

BuildingSurface:Detailed,
    D8CC6C,                  !- Name
    Wall,                    !- Surface Type
    Exterior Wall East,      !- Construction Name
    APTO01_P4,               !- Zone Name
    Outdoors,                !- Outside Boundary Condition
    ,                        !- Outside Boundary Condition Object
    SunExposed,              !- Sun Exposure
    WindExposed,             !- Wind Exposure
    ,                        !- View Factor to Ground
    4,                       !- Number of Vertices
    5.800000000000,          !- Vertex 1 X-coordinate {m}
    -6.750000000000,         !- Vertex 1 Y-coordinate {m}
    11.400000000000,         !- Vertex 1 Z-coordinate {m}
    5.800000000000,          !- Vertex 2 X-coordinate {m}
    -6.750000000000,         !- Vertex 2 Y-coordinate {m}
    8.550000000000,          !- Vertex 2 Z-coordinate {m}
    5.800000000000,          !- Vertex 3 X-coordinate {m}
    -3.600000000000,         !- Vertex 3 Y-coordinate {m}
    8.550000000000,          !- Vertex 3 Z-coordinate {m}
    5.800000000000,          !- Vertex 4 X-coordinate {m}
    -3.600000000000,         !- Vertex 4 Y-coordinate {m}
    11.400000000000;         !- Vertex 4 Z-coordinate {m}

BuildingSurface:Detailed,
    8E9682,                  !- Name
    Floor,                   !- Surface Type
    Interior Floor,          !- Construction Name
    APTO04_P4,               !- Zone Name
    Surface,                 !- Outside Boundary Condition
    5DA920,                  !- Outside Boundary Condition Object
    NoSun,                   !- Sun Exposure
    NoWind,                  !- Wind Exposure
    ,                        !- View Factor to Ground
    8,                       !- Number of Vertices
    15.800000000000,         !- Vertex 1 X-coordinate {m}
    0.000000000000,          !- Vertex 1 Y-coordinate {m}
    8.550000000000,          !- Vertex 1 Z-coordinate {m}
    15.800000000000,         !- Vertex 2 X-coordinate {m}
    -0.950000000000,         !- Vertex 2 Y-coordinate {m}
    8.550000000000,          !- Vertex 2 Z-coordinate {m}
    17.150000000000,         !- Vertex 3 X-coordinate {m}
    -0.950000000000,         !- Vertex 3 Y-coordinate {m}
    8.550000000000,          !- Vertex 3 Z-coordinate {m}
    17.150000000000,         !- Vertex 4 X-coordinate {m}
    -6.750000000000,         !- Vertex 4 Y-coordinate {m}
    8.550000000000,          !- Vertex 4 Z-coordinate {m}
    11.350000000000,         !- Vertex 5 X-coordinate {m}
    -6.750000000000,         !- Vertex 5 Y-coordinate {m}
    8.550000000000,          !- Vertex 5 Z-coordinate {m}
    11.350000000000,         !- Vertex 6 X-coordinate {m}
    -3.600000000000,         !- Vertex 6 Y-coordinate {m}
    8.550000000000,          !- Vertex 6 Z-coordinate {m}
    9.700000000000,          !- Vertex 7 X-coordinate {m}
    -3.600000000000,         !- Vertex 7 Y-coordinate {m}
    8.550000000000,          !- Vertex 7 Z-coordinate {m}
    9.700000000000,          !- Vertex 8 X-coordinate {m}
    0.000000000000,          !- Vertex 8 Y-coordinate {m}
    8.550000000000;          !- Vertex 8 Z-coordinate {m}

BuildingSurface:Detailed,
    530FB3,                  !- Name
    Ceiling,                 !- Surface Type
    Interior Ceiling,        !- Construction Name
    APTO04_P4,               !- Zone Name
    Surface,                 !- Outside Boundary Condition
    DFDCF9,                  !- Outside Boundary Condition Object
    NoSun,                   !- Sun Exposure
    NoWind,                  !- Wind Exposure
    ,                        !- View Factor to Ground
    8,                       !- Number of Vertices
    9.700000000000,          !- Vertex 1 X-coordinate {m}
    0.000000000000,          !- Vertex 1 Y-coordinate {m}
    11.400000000000,         !- Vertex 1 Z-coordinate {m}
    9.700000000000,          !- Vertex 2 X-coordinate {m}
    -3.600000000000,         !- Vertex 2 Y-coordinate {m}
    11.400000000000,         !- Vertex 2 Z-coordinate {m}
    11.350000000000,         !- Vertex 3 X-coordinate {m}
    -3.600000000000,         !- Vertex 3 Y-coordinate {m}
    11.400000000000,         !- Vertex 3 Z-coordinate {m}
    11.350000000000,         !- Vertex 4 X-coordinate {m}
    -6.750000000000,         !- Vertex 4 Y-coordinate {m}
    11.400000000000,         !- Vertex 4 Z-coordinate {m}
    17.150000000000,         !- Vertex 5 X-coordinate {m}
    -6.750000000000,         !- Vertex 5 Y-coordinate {m}
    11.400000000000,         !- Vertex 5 Z-coordinate {m}
    17.150000000000,         !- Vertex 6 X-coordinate {m}
    -0.950000000000,         !- Vertex 6 Y-coordinate {m}
    11.400000000000,         !- Vertex 6 Z-coordinate {m}
    15.800000000000,         !- Vertex 7 X-coordinate {m}
    -0.950000000000,         !- Vertex 7 Y-coordinate {m}
    11.400000000000,         !- Vertex 7 Z-coordinate {m}
    15.800000000000,         !- Vertex 8 X-coordinate {m}
    0.000000000000,          !- Vertex 8 Y-coordinate {m}
    11.400000000000;         !- Vertex 8 Z-coordinate {m}

BuildingSurface:Detailed,
    3BBAAE,                  !- Name
    Wall,                    !- Surface Type
    Interior Wall,           !- Construction Name
    APTO04_P4,               !- Zone Name
    Surface,                 !- Outside Boundary Condition
    572680,                  !- Outside Boundary Condition Object
    NoSun,                   !- Sun Exposure
    NoWind,                  !- Wind Exposure
    ,                        !- View Factor to Ground
    4,                       !- Number of Vertices
    15.800000000000,         !- Vertex 1 X-coordinate {m}
    0.000000000000,          !- Vertex 1 Y-coordinate {m}
    11.400000000000,         !- Vertex 1 Z-coordinate {m}
    15.800000000000,         !- Vertex 2 X-coordinate {m}
    0.000000000000,          !- Vertex 2 Y-coordinate {m}
    8.550000000000,          !- Vertex 2 Z-coordinate {m}
    9.700000000000,          !- Vertex 3 X-coordinate {m}
    0.000000000000,          !- Vertex 3 Y-coordinate {m}
    8.550000000000,          !- Vertex 3 Z-coordinate {m}
    9.700000000000,          !- Vertex 4 X-coordinate {m}
    0.000000000000,          !- Vertex 4 Y-coordinate {m}
    11.400000000000;         !- Vertex 4 Z-coordinate {m}

BuildingSurface:Detailed,
    3040F6,                  !- Name
    Wall,                    !- Surface Type
    Exterior Wall East,      !- Construction Name
    APTO04_P4,               !- Zone Name
    Outdoors,                !- Outside Boundary Condition
    ,                        !- Outside Boundary Condition Object
    SunExposed,              !- Sun Exposure
    WindExposed,             !- Wind Exposure
    ,                        !- View Factor to Ground
    4,                       !- Number of Vertices
    15.800000000000,         !- Vertex 1 X-coordinate {m}
    -0.950000000000,         !- Vertex 1 Y-coordinate {m}
    11.400000000000,         !- Vertex 1 Z-coordinate {m}
    15.800000000000,         !- Vertex 2 X-coordinate {m}
    -0.950000000000,         !- Vertex 2 Y-coordinate {m}
    8.550000000000,          !- Vertex 2 Z-coordinate {m}
    15.800000000000,         !- Vertex 3 X-coordinate {m}
    0.000000000000,          !- Vertex 3 Y-coordinate {m}
    8.550000000000,          !- Vertex 3 Z-coordinate {m}
    15.800000000000,         !- Vertex 4 X-coordinate {m}
    0.000000000000,          !- Vertex 4 Y-coordinate {m}
    11.400000000000;         !- Vertex 4 Z-coordinate {m}

BuildingSurface:Detailed,
    D22D8D,                  !- Name
    Wall,                    !- Surface Type
    Exterior Wall North,     !- Construction Name
    APTO04_P4,               !- Zone Name
    Outdoors,                !- Outside Boundary Condition
    ,                        !- Outside Boundary Condition Object
    SunExposed,              !- Sun Exposure
    WindExposed,             !- Wind Exposure
    ,                        !- View Factor to Ground
    4,                       !- Number of Vertices
    17.150000000000,         !- Vertex 1 X-coordinate {m}
    -0.950000000000,         !- Vertex 1 Y-coordinate {m}
    11.400000000000,         !- Vertex 1 Z-coordinate {m}
    17.150000000000,         !- Vertex 2 X-coordinate {m}
    -0.950000000000,         !- Vertex 2 Y-coordinate {m}
    8.550000000000,          !- Vertex 2 Z-coordinate {m}
    15.800000000000,         !- Vertex 3 X-coordinate {m}
    -0.950000000000,         !- Vertex 3 Y-coordinate {m}
    8.550000000000,          !- Vertex 3 Z-coordinate {m}
    15.800000000000,         !- Vertex 4 X-coordinate {m}
    -0.950000000000,         !- Vertex 4 Y-coordinate {m}
    11.400000000000;         !- Vertex 4 Z-coordinate {m}

BuildingSurface:Detailed,
    DDAD9A,                  !- Name
    Wall,                    !- Surface Type
    Exterior Wall East,      !- Construction Name
    APTO04_P4,               !- Zone Name
    Outdoors,                !- Outside Boundary Condition
    ,                        !- Outside Boundary Condition Object
    SunExposed,              !- Sun Exposure
    WindExposed,             !- Wind Exposure
    ,                        !- View Factor to Ground
    4,                       !- Number of Vertices
    17.150000000000,         !- Vertex 1 X-coordinate {m}
    -6.750000000000,         !- Vertex 1 Y-coordinate {m}
    11.400000000000,         !- Vertex 1 Z-coordinate {m}
    17.150000000000,         !- Vertex 2 X-coordinate {m}
    -6.750000000000,         !- Vertex 2 Y-coordinate {m}
    8.550000000000,          !- Vertex 2 Z-coordinate {m}
    17.150000000000,         !- Vertex 3 X-coordinate {m}
    -0.950000000000,         !- Vertex 3 Y-coordinate {m}
    8.550000000000,          !- Vertex 3 Z-coordinate {m}
    17.150000000000,         !- Vertex 4 X-coordinate {m}
    -0.950000000000,         !- Vertex 4 Y-coordinate {m}
    11.400000000000;         !- Vertex 4 Z-coordinate {m}

BuildingSurface:Detailed,
    DC3CEC,                  !- Name
    Wall,                    !- Surface Type
    Exterior Wall South,     !- Construction Name
    APTO04_P4,               !- Zone Name
    Outdoors,                !- Outside Boundary Condition
    ,                        !- Outside Boundary Condition Object
    SunExposed,              !- Sun Exposure
    WindExposed,             !- Wind Exposure
    ,                        !- View Factor to Ground
    4,                       !- Number of Vertices
    11.350000000000,         !- Vertex 1 X-coordinate {m}
    -6.750000000000,         !- Vertex 1 Y-coordinate {m}
    11.400000000000,         !- Vertex 1 Z-coordinate {m}
    11.350000000000,         !- Vertex 2 X-coordinate {m}
    -6.750000000000,         !- Vertex 2 Y-coordinate {m}
    8.550000000000,          !- Vertex 2 Z-coordinate {m}
    17.150000000000,         !- Vertex 3 X-coordinate {m}
    -6.750000000000,         !- Vertex 3 Y-coordinate {m}
    8.550000000000,          !- Vertex 3 Z-coordinate {m}
    17.150000000000,         !- Vertex 4 X-coordinate {m}
    -6.750000000000,         !- Vertex 4 Y-coordinate {m}
    11.400000000000;         !- Vertex 4 Z-coordinate {m}

BuildingSurface:Detailed,
    6FB32A,                  !- Name
    Wall,                    !- Surface Type
    Exterior Wall West,      !- Construction Name
    APTO04_P4,               !- Zone Name
    Outdoors,                !- Outside Boundary Condition
    ,                        !- Outside Boundary Condition Object
    SunExposed,              !- Sun Exposure
    WindExposed,             !- Wind Exposure
    ,                        !- View Factor to Ground
    4,                       !- Number of Vertices
    11.350000000000,         !- Vertex 1 X-coordinate {m}
    -3.600000000000,         !- Vertex 1 Y-coordinate {m}
    11.400000000000,         !- Vertex 1 Z-coordinate {m}
    11.350000000000,         !- Vertex 2 X-coordinate {m}
    -3.600000000000,         !- Vertex 2 Y-coordinate {m}
    8.550000000000,          !- Vertex 2 Z-coordinate {m}
    11.350000000000,         !- Vertex 3 X-coordinate {m}
    -6.750000000000,         !- Vertex 3 Y-coordinate {m}
    8.550000000000,          !- Vertex 3 Z-coordinate {m}
    11.350000000000,         !- Vertex 4 X-coordinate {m}
    -6.750000000000,         !- Vertex 4 Y-coordinate {m}
    11.400000000000;         !- Vertex 4 Z-coordinate {m}

BuildingSurface:Detailed,
    8DF3B9,                  !- Name
    Wall,                    !- Surface Type
    Interior Wall,           !- Construction Name
    APTO04_P4,               !- Zone Name
    Surface,                 !- Outside Boundary Condition
    BC408F,                  !- Outside Boundary Condition Object
    NoSun,                   !- Sun Exposure
    NoWind,                  !- Wind Exposure
    ,                        !- View Factor to Ground
    4,                       !- Number of Vertices
    9.700000000000,          !- Vertex 1 X-coordinate {m}
    0.000000000000,          !- Vertex 1 Y-coordinate {m}
    11.400000000000,         !- Vertex 1 Z-coordinate {m}
    9.700000000000,          !- Vertex 2 X-coordinate {m}
    0.000000000000,          !- Vertex 2 Y-coordinate {m}
    8.550000000000,          !- Vertex 2 Z-coordinate {m}
    9.700000000000,          !- Vertex 3 X-coordinate {m}
    -3.600000000000,         !- Vertex 3 Y-coordinate {m}
    8.550000000000,          !- Vertex 3 Z-coordinate {m}
    9.700000000000,          !- Vertex 4 X-coordinate {m}
    -3.600000000000,         !- Vertex 4 Y-coordinate {m}
    11.400000000000;         !- Vertex 4 Z-coordinate {m}

BuildingSurface:Detailed,
    DAE4CD,                  !- Name
    Wall,                    !- Surface Type
    Exterior Wall South,     !- Construction Name
    APTO04_P4,               !- Zone Name
    Outdoors,                !- Outside Boundary Condition
    ,                        !- Outside Boundary Condition Object
    SunExposed,              !- Sun Exposure
    WindExposed,             !- Wind Exposure
    ,                        !- View Factor to Ground
    4,                       !- Number of Vertices
    9.700000000000,          !- Vertex 1 X-coordinate {m}
    -3.600000000000,         !- Vertex 1 Y-coordinate {m}
    11.400000000000,         !- Vertex 1 Z-coordinate {m}
    9.700000000000,          !- Vertex 2 X-coordinate {m}
    -3.600000000000,         !- Vertex 2 Y-coordinate {m}
    8.550000000000,          !- Vertex 2 Z-coordinate {m}
    11.350000000000,         !- Vertex 3 X-coordinate {m}
    -3.600000000000,         !- Vertex 3 Y-coordinate {m}
    8.550000000000,          !- Vertex 3 Z-coordinate {m}
    11.350000000000,         !- Vertex 4 X-coordinate {m}
    -3.600000000000,         !- Vertex 4 Y-coordinate {m}
    11.400000000000;         !- Vertex 4 Z-coordinate {m}

BuildingSurface:Detailed,
    43D9C3,                  !- Name
    Floor,                   !- Surface Type
    Interior Floor,          !- Construction Name
    APTO03_P5,               !- Zone Name
    Surface,                 !- Outside Boundary Condition
    7695FE,                  !- Outside Boundary Condition Object
    NoSun,                   !- Sun Exposure
    NoWind,                  !- Wind Exposure
    ,                        !- View Factor to Ground
    8,                       !- Number of Vertices
    17.150000000000,         !- Vertex 1 X-coordinate {m}
    6.750000000000,          !- Vertex 1 Y-coordinate {m}
    11.400000000000,         !- Vertex 1 Z-coordinate {m}
    17.150000000000,         !- Vertex 2 X-coordinate {m}
    0.950000000000,          !- Vertex 2 Y-coordinate {m}
    11.400000000000,         !- Vertex 2 Z-coordinate {m}
    15.800000000000,         !- Vertex 3 X-coordinate {m}
    0.950000000000,          !- Vertex 3 Y-coordinate {m}
    11.400000000000,         !- Vertex 3 Z-coordinate {m}
    15.800000000000,         !- Vertex 4 X-coordinate {m}
    0.000000000000,          !- Vertex 4 Y-coordinate {m}
    11.400000000000,         !- Vertex 4 Z-coordinate {m}
    9.700000000000,          !- Vertex 5 X-coordinate {m}
    0.000000000000,          !- Vertex 5 Y-coordinate {m}
    11.400000000000,         !- Vertex 5 Z-coordinate {m}
    9.700000000000,          !- Vertex 6 X-coordinate {m}
    3.600000000000,          !- Vertex 6 Y-coordinate {m}
    11.400000000000,         !- Vertex 6 Z-coordinate {m}
    11.350000000000,         !- Vertex 7 X-coordinate {m}
    3.600000000000,          !- Vertex 7 Y-coordinate {m}
    11.400000000000,         !- Vertex 7 Z-coordinate {m}
    11.350000000000,         !- Vertex 8 X-coordinate {m}
    6.750000000000,          !- Vertex 8 Y-coordinate {m}
    11.400000000000;         !- Vertex 8 Z-coordinate {m}

BuildingSurface:Detailed,
    BD9402,                  !- Name
    Roof,                    !- Surface Type
    Exterior Roof,           !- Construction Name
    APTO03_P5,               !- Zone Name
    Outdoors,                !- Outside Boundary Condition
    ,                        !- Outside Boundary Condition Object
    SunExposed,              !- Sun Exposure
    WindExposed,             !- Wind Exposure
    ,                        !- View Factor to Ground
    8,                       !- Number of Vertices
    11.350000000000,         !- Vertex 1 X-coordinate {m}
    6.750000000000,          !- Vertex 1 Y-coordinate {m}
    14.250000000000,         !- Vertex 1 Z-coordinate {m}
    11.350000000000,         !- Vertex 2 X-coordinate {m}
    3.600000000000,          !- Vertex 2 Y-coordinate {m}
    14.250000000000,         !- Vertex 2 Z-coordinate {m}
    9.700000000000,          !- Vertex 3 X-coordinate {m}
    3.600000000000,          !- Vertex 3 Y-coordinate {m}
    14.250000000000,         !- Vertex 3 Z-coordinate {m}
    9.700000000000,          !- Vertex 4 X-coordinate {m}
    0.000000000000,          !- Vertex 4 Y-coordinate {m}
    14.250000000000,         !- Vertex 4 Z-coordinate {m}
    15.800000000000,         !- Vertex 5 X-coordinate {m}
    0.000000000000,          !- Vertex 5 Y-coordinate {m}
    14.250000000000,         !- Vertex 5 Z-coordinate {m}
    15.800000000000,         !- Vertex 6 X-coordinate {m}
    0.950000000000,          !- Vertex 6 Y-coordinate {m}
    14.250000000000,         !- Vertex 6 Z-coordinate {m}
    17.150000000000,         !- Vertex 7 X-coordinate {m}
    0.950000000000,          !- Vertex 7 Y-coordinate {m}
    14.250000000000,         !- Vertex 7 Z-coordinate {m}
    17.150000000000,         !- Vertex 8 X-coordinate {m}
    6.750000000000,          !- Vertex 8 Y-coordinate {m}
    14.250000000000;         !- Vertex 8 Z-coordinate {m}

BuildingSurface:Detailed,
    3CAA8C,                  !- Name
    Wall,                    !- Surface Type
    Interior Wall,           !- Construction Name
    APTO03_P5,               !- Zone Name
    Surface,                 !- Outside Boundary Condition
    35F374,                  !- Outside Boundary Condition Object
    NoSun,                   !- Sun Exposure
    NoWind,                  !- Wind Exposure
    ,                        !- View Factor to Ground
    4,                       !- Number of Vertices
    9.700000000000,          !- Vertex 1 X-coordinate {m}
    3.600000000000,          !- Vertex 1 Y-coordinate {m}
    14.250000000000,         !- Vertex 1 Z-coordinate {m}
    9.700000000000,          !- Vertex 2 X-coordinate {m}
    3.600000000000,          !- Vertex 2 Y-coordinate {m}
    11.400000000000,         !- Vertex 2 Z-coordinate {m}
    9.700000000000,          !- Vertex 3 X-coordinate {m}
    0.000000000000,          !- Vertex 3 Y-coordinate {m}
    11.400000000000,         !- Vertex 3 Z-coordinate {m}
    9.700000000000,          !- Vertex 4 X-coordinate {m}
    0.000000000000,          !- Vertex 4 Y-coordinate {m}
    14.250000000000;         !- Vertex 4 Z-coordinate {m}

BuildingSurface:Detailed,
    E23F1E,                  !- Name
    Wall,                    !- Surface Type
    Exterior Wall North,     !- Construction Name
    APTO03_P5,               !- Zone Name
    Outdoors,                !- Outside Boundary Condition
    ,                        !- Outside Boundary Condition Object
    SunExposed,              !- Sun Exposure
    WindExposed,             !- Wind Exposure
    ,                        !- View Factor to Ground
    4,                       !- Number of Vertices
    11.350000000000,         !- Vertex 1 X-coordinate {m}
    3.600000000000,          !- Vertex 1 Y-coordinate {m}
    14.250000000000,         !- Vertex 1 Z-coordinate {m}
    11.350000000000,         !- Vertex 2 X-coordinate {m}
    3.600000000000,          !- Vertex 2 Y-coordinate {m}
    11.400000000000,         !- Vertex 2 Z-coordinate {m}
    9.700000000000,          !- Vertex 3 X-coordinate {m}
    3.600000000000,          !- Vertex 3 Y-coordinate {m}
    11.400000000000,         !- Vertex 3 Z-coordinate {m}
    9.700000000000,          !- Vertex 4 X-coordinate {m}
    3.600000000000,          !- Vertex 4 Y-coordinate {m}
    14.250000000000;         !- Vertex 4 Z-coordinate {m}

BuildingSurface:Detailed,
    93CE21,                  !- Name
    Wall,                    !- Surface Type
    Exterior Wall West,      !- Construction Name
    APTO03_P5,               !- Zone Name
    Outdoors,                !- Outside Boundary Condition
    ,                        !- Outside Boundary Condition Object
    SunExposed,              !- Sun Exposure
    WindExposed,             !- Wind Exposure
    ,                        !- View Factor to Ground
    4,                       !- Number of Vertices
    11.350000000000,         !- Vertex 1 X-coordinate {m}
    6.750000000000,          !- Vertex 1 Y-coordinate {m}
    14.250000000000,         !- Vertex 1 Z-coordinate {m}
    11.350000000000,         !- Vertex 2 X-coordinate {m}
    6.750000000000,          !- Vertex 2 Y-coordinate {m}
    11.400000000000,         !- Vertex 2 Z-coordinate {m}
    11.350000000000,         !- Vertex 3 X-coordinate {m}
    3.600000000000,          !- Vertex 3 Y-coordinate {m}
    11.400000000000,         !- Vertex 3 Z-coordinate {m}
    11.350000000000,         !- Vertex 4 X-coordinate {m}
    3.600000000000,          !- Vertex 4 Y-coordinate {m}
    14.250000000000;         !- Vertex 4 Z-coordinate {m}

BuildingSurface:Detailed,
    CEB556,                  !- Name
    Wall,                    !- Surface Type
    Exterior Wall North,     !- Construction Name
    APTO03_P5,               !- Zone Name
    Outdoors,                !- Outside Boundary Condition
    ,                        !- Outside Boundary Condition Object
    SunExposed,              !- Sun Exposure
    WindExposed,             !- Wind Exposure
    ,                        !- View Factor to Ground
    4,                       !- Number of Vertices
    17.150000000000,         !- Vertex 1 X-coordinate {m}
    6.750000000000,          !- Vertex 1 Y-coordinate {m}
    14.250000000000,         !- Vertex 1 Z-coordinate {m}
    17.150000000000,         !- Vertex 2 X-coordinate {m}
    6.750000000000,          !- Vertex 2 Y-coordinate {m}
    11.400000000000,         !- Vertex 2 Z-coordinate {m}
    11.350000000000,         !- Vertex 3 X-coordinate {m}
    6.750000000000,          !- Vertex 3 Y-coordinate {m}
    11.400000000000,         !- Vertex 3 Z-coordinate {m}
    11.350000000000,         !- Vertex 4 X-coordinate {m}
    6.750000000000,          !- Vertex 4 Y-coordinate {m}
    14.250000000000;         !- Vertex 4 Z-coordinate {m}

BuildingSurface:Detailed,
    2C0B9E,                  !- Name
    Wall,                    !- Surface Type
    Exterior Wall East,      !- Construction Name
    APTO03_P5,               !- Zone Name
    Outdoors,                !- Outside Boundary Condition
    ,                        !- Outside Boundary Condition Object
    SunExposed,              !- Sun Exposure
    WindExposed,             !- Wind Exposure
    ,                        !- View Factor to Ground
    4,                       !- Number of Vertices
    17.150000000000,         !- Vertex 1 X-coordinate {m}
    0.950000000000,          !- Vertex 1 Y-coordinate {m}
    14.250000000000,         !- Vertex 1 Z-coordinate {m}
    17.150000000000,         !- Vertex 2 X-coordinate {m}
    0.950000000000,          !- Vertex 2 Y-coordinate {m}
    11.400000000000,         !- Vertex 2 Z-coordinate {m}
    17.150000000000,         !- Vertex 3 X-coordinate {m}
    6.750000000000,          !- Vertex 3 Y-coordinate {m}
    11.400000000000,         !- Vertex 3 Z-coordinate {m}
    17.150000000000,         !- Vertex 4 X-coordinate {m}
    6.750000000000,          !- Vertex 4 Y-coordinate {m}
    14.250000000000;         !- Vertex 4 Z-coordinate {m}

BuildingSurface:Detailed,
    973ECF,                  !- Name
    Wall,                    !- Surface Type
    Exterior Wall South,     !- Construction Name
    APTO03_P5,               !- Zone Name
    Outdoors,                !- Outside Boundary Condition
    ,                        !- Outside Boundary Condition Object
    SunExposed,              !- Sun Exposure
    WindExposed,             !- Wind Exposure
    ,                        !- View Factor to Ground
    4,                       !- Number of Vertices
    15.800000000000,         !- Vertex 1 X-coordinate {m}
    0.950000000000,          !- Vertex 1 Y-coordinate {m}
    14.250000000000,         !- Vertex 1 Z-coordinate {m}
    15.800000000000,         !- Vertex 2 X-coordinate {m}
    0.950000000000,          !- Vertex 2 Y-coordinate {m}
    11.400000000000,         !- Vertex 2 Z-coordinate {m}
    17.150000000000,         !- Vertex 3 X-coordinate {m}
    0.950000000000,          !- Vertex 3 Y-coordinate {m}
    11.400000000000,         !- Vertex 3 Z-coordinate {m}
    17.150000000000,         !- Vertex 4 X-coordinate {m}
    0.950000000000,          !- Vertex 4 Y-coordinate {m}
    14.250000000000;         !- Vertex 4 Z-coordinate {m}

BuildingSurface:Detailed,
    44D498,                  !- Name
    Wall,                    !- Surface Type
    Exterior Wall East,      !- Construction Name
    APTO03_P5,               !- Zone Name
    Outdoors,                !- Outside Boundary Condition
    ,                        !- Outside Boundary Condition Object
    SunExposed,              !- Sun Exposure
    WindExposed,             !- Wind Exposure
    ,                        !- View Factor to Ground
    4,                       !- Number of Vertices
    15.800000000000,         !- Vertex 1 X-coordinate {m}
    0.000000000000,          !- Vertex 1 Y-coordinate {m}
    14.250000000000,         !- Vertex 1 Z-coordinate {m}
    15.800000000000,         !- Vertex 2 X-coordinate {m}
    0.000000000000,          !- Vertex 2 Y-coordinate {m}
    11.400000000000,         !- Vertex 2 Z-coordinate {m}
    15.800000000000,         !- Vertex 3 X-coordinate {m}
    0.950000000000,          !- Vertex 3 Y-coordinate {m}
    11.400000000000,         !- Vertex 3 Z-coordinate {m}
    15.800000000000,         !- Vertex 4 X-coordinate {m}
    0.950000000000,          !- Vertex 4 Y-coordinate {m}
    14.250000000000;         !- Vertex 4 Z-coordinate {m}

BuildingSurface:Detailed,
    D45BB1,                  !- Name
    Wall,                    !- Surface Type
    Interior Wall,           !- Construction Name
    APTO03_P5,               !- Zone Name
    Surface,                 !- Outside Boundary Condition
    9E015B,                  !- Outside Boundary Condition Object
    NoSun,                   !- Sun Exposure
    NoWind,                  !- Wind Exposure
    ,                        !- View Factor to Ground
    4,                       !- Number of Vertices
    9.700000000000,          !- Vertex 1 X-coordinate {m}
    0.000000000000,          !- Vertex 1 Y-coordinate {m}
    14.250000000000,         !- Vertex 1 Z-coordinate {m}
    9.700000000000,          !- Vertex 2 X-coordinate {m}
    0.000000000000,          !- Vertex 2 Y-coordinate {m}
    11.400000000000,         !- Vertex 2 Z-coordinate {m}
    15.800000000000,         !- Vertex 3 X-coordinate {m}
    0.000000000000,          !- Vertex 3 Y-coordinate {m}
    11.400000000000,         !- Vertex 3 Z-coordinate {m}
    15.800000000000,         !- Vertex 4 X-coordinate {m}
    0.000000000000,          !- Vertex 4 Y-coordinate {m}
    14.250000000000;         !- Vertex 4 Z-coordinate {m}

BuildingSurface:Detailed,
    DFDCF9,                  !- Name
    Floor,                   !- Surface Type
    Interior Floor,          !- Construction Name
    APTO04_P5,               !- Zone Name
    Surface,                 !- Outside Boundary Condition
    530FB3,                  !- Outside Boundary Condition Object
    NoSun,                   !- Sun Exposure
    NoWind,                  !- Wind Exposure
    ,                        !- View Factor to Ground
    8,                       !- Number of Vertices
    15.800000000000,         !- Vertex 1 X-coordinate {m}
    0.000000000000,          !- Vertex 1 Y-coordinate {m}
    11.400000000000,         !- Vertex 1 Z-coordinate {m}
    15.800000000000,         !- Vertex 2 X-coordinate {m}
    -0.950000000000,         !- Vertex 2 Y-coordinate {m}
    11.400000000000,         !- Vertex 2 Z-coordinate {m}
    17.150000000000,         !- Vertex 3 X-coordinate {m}
    -0.950000000000,         !- Vertex 3 Y-coordinate {m}
    11.400000000000,         !- Vertex 3 Z-coordinate {m}
    17.150000000000,         !- Vertex 4 X-coordinate {m}
    -6.750000000000,         !- Vertex 4 Y-coordinate {m}
    11.400000000000,         !- Vertex 4 Z-coordinate {m}
    11.350000000000,         !- Vertex 5 X-coordinate {m}
    -6.750000000000,         !- Vertex 5 Y-coordinate {m}
    11.400000000000,         !- Vertex 5 Z-coordinate {m}
    11.350000000000,         !- Vertex 6 X-coordinate {m}
    -3.600000000000,         !- Vertex 6 Y-coordinate {m}
    11.400000000000,         !- Vertex 6 Z-coordinate {m}
    9.700000000000,          !- Vertex 7 X-coordinate {m}
    -3.600000000000,         !- Vertex 7 Y-coordinate {m}
    11.400000000000,         !- Vertex 7 Z-coordinate {m}
    9.700000000000,          !- Vertex 8 X-coordinate {m}
    0.000000000000,          !- Vertex 8 Y-coordinate {m}
    11.400000000000;         !- Vertex 8 Z-coordinate {m}

BuildingSurface:Detailed,
    C773B5,                  !- Name
    Roof,                    !- Surface Type
    Exterior Roof,           !- Construction Name
    APTO04_P5,               !- Zone Name
    Outdoors,                !- Outside Boundary Condition
    ,                        !- Outside Boundary Condition Object
    SunExposed,              !- Sun Exposure
    WindExposed,             !- Wind Exposure
    ,                        !- View Factor to Ground
    8,                       !- Number of Vertices
    9.700000000000,          !- Vertex 1 X-coordinate {m}
    0.000000000000,          !- Vertex 1 Y-coordinate {m}
    14.250000000000,         !- Vertex 1 Z-coordinate {m}
    9.700000000000,          !- Vertex 2 X-coordinate {m}
    -3.600000000000,         !- Vertex 2 Y-coordinate {m}
    14.250000000000,         !- Vertex 2 Z-coordinate {m}
    11.350000000000,         !- Vertex 3 X-coordinate {m}
    -3.600000000000,         !- Vertex 3 Y-coordinate {m}
    14.250000000000,         !- Vertex 3 Z-coordinate {m}
    11.350000000000,         !- Vertex 4 X-coordinate {m}
    -6.750000000000,         !- Vertex 4 Y-coordinate {m}
    14.250000000000,         !- Vertex 4 Z-coordinate {m}
    17.150000000000,         !- Vertex 5 X-coordinate {m}
    -6.750000000000,         !- Vertex 5 Y-coordinate {m}
    14.250000000000,         !- Vertex 5 Z-coordinate {m}
    17.150000000000,         !- Vertex 6 X-coordinate {m}
    -0.950000000000,         !- Vertex 6 Y-coordinate {m}
    14.250000000000,         !- Vertex 6 Z-coordinate {m}
    15.800000000000,         !- Vertex 7 X-coordinate {m}
    -0.950000000000,         !- Vertex 7 Y-coordinate {m}
    14.250000000000,         !- Vertex 7 Z-coordinate {m}
    15.800000000000,         !- Vertex 8 X-coordinate {m}
    0.000000000000,          !- Vertex 8 Y-coordinate {m}
    14.250000000000;         !- Vertex 8 Z-coordinate {m}

BuildingSurface:Detailed,
    9E015B,                  !- Name
    Wall,                    !- Surface Type
    Interior Wall,           !- Construction Name
    APTO04_P5,               !- Zone Name
    Surface,                 !- Outside Boundary Condition
    D45BB1,                  !- Outside Boundary Condition Object
    NoSun,                   !- Sun Exposure
    NoWind,                  !- Wind Exposure
    ,                        !- View Factor to Ground
    4,                       !- Number of Vertices
    15.800000000000,         !- Vertex 1 X-coordinate {m}
    0.000000000000,          !- Vertex 1 Y-coordinate {m}
    14.250000000000,         !- Vertex 1 Z-coordinate {m}
    15.800000000000,         !- Vertex 2 X-coordinate {m}
    0.000000000000,          !- Vertex 2 Y-coordinate {m}
    11.400000000000,         !- Vertex 2 Z-coordinate {m}
    9.700000000000,          !- Vertex 3 X-coordinate {m}
    0.000000000000,          !- Vertex 3 Y-coordinate {m}
    11.400000000000,         !- Vertex 3 Z-coordinate {m}
    9.700000000000,          !- Vertex 4 X-coordinate {m}
    0.000000000000,          !- Vertex 4 Y-coordinate {m}
    14.250000000000;         !- Vertex 4 Z-coordinate {m}

BuildingSurface:Detailed,
    A190E7,                  !- Name
    Wall,                    !- Surface Type
    Exterior Wall East,      !- Construction Name
    APTO04_P5,               !- Zone Name
    Outdoors,                !- Outside Boundary Condition
    ,                        !- Outside Boundary Condition Object
    SunExposed,              !- Sun Exposure
    WindExposed,             !- Wind Exposure
    ,                        !- View Factor to Ground
    4,                       !- Number of Vertices
    15.800000000000,         !- Vertex 1 X-coordinate {m}
    -0.950000000000,         !- Vertex 1 Y-coordinate {m}
    14.250000000000,         !- Vertex 1 Z-coordinate {m}
    15.800000000000,         !- Vertex 2 X-coordinate {m}
    -0.950000000000,         !- Vertex 2 Y-coordinate {m}
    11.400000000000,         !- Vertex 2 Z-coordinate {m}
    15.800000000000,         !- Vertex 3 X-coordinate {m}
    0.000000000000,          !- Vertex 3 Y-coordinate {m}
    11.400000000000,         !- Vertex 3 Z-coordinate {m}
    15.800000000000,         !- Vertex 4 X-coordinate {m}
    0.000000000000,          !- Vertex 4 Y-coordinate {m}
    14.250000000000;         !- Vertex 4 Z-coordinate {m}

BuildingSurface:Detailed,
    93754D,                  !- Name
    Wall,                    !- Surface Type
    Exterior Wall North,     !- Construction Name
    APTO04_P5,               !- Zone Name
    Outdoors,                !- Outside Boundary Condition
    ,                        !- Outside Boundary Condition Object
    SunExposed,              !- Sun Exposure
    WindExposed,             !- Wind Exposure
    ,                        !- View Factor to Ground
    4,                       !- Number of Vertices
    17.150000000000,         !- Vertex 1 X-coordinate {m}
    -0.950000000000,         !- Vertex 1 Y-coordinate {m}
    14.250000000000,         !- Vertex 1 Z-coordinate {m}
    17.150000000000,         !- Vertex 2 X-coordinate {m}
    -0.950000000000,         !- Vertex 2 Y-coordinate {m}
    11.400000000000,         !- Vertex 2 Z-coordinate {m}
    15.800000000000,         !- Vertex 3 X-coordinate {m}
    -0.950000000000,         !- Vertex 3 Y-coordinate {m}
    11.400000000000,         !- Vertex 3 Z-coordinate {m}
    15.800000000000,         !- Vertex 4 X-coordinate {m}
    -0.950000000000,         !- Vertex 4 Y-coordinate {m}
    14.250000000000;         !- Vertex 4 Z-coordinate {m}

BuildingSurface:Detailed,
    AF7CAF,                  !- Name
    Wall,                    !- Surface Type
    Exterior Wall East,      !- Construction Name
    APTO04_P5,               !- Zone Name
    Outdoors,                !- Outside Boundary Condition
    ,                        !- Outside Boundary Condition Object
    SunExposed,              !- Sun Exposure
    WindExposed,             !- Wind Exposure
    ,                        !- View Factor to Ground
    4,                       !- Number of Vertices
    17.150000000000,         !- Vertex 1 X-coordinate {m}
    -6.750000000000,         !- Vertex 1 Y-coordinate {m}
    14.250000000000,         !- Vertex 1 Z-coordinate {m}
    17.150000000000,         !- Vertex 2 X-coordinate {m}
    -6.750000000000,         !- Vertex 2 Y-coordinate {m}
    11.400000000000,         !- Vertex 2 Z-coordinate {m}
    17.150000000000,         !- Vertex 3 X-coordinate {m}
    -0.950000000000,         !- Vertex 3 Y-coordinate {m}
    11.400000000000,         !- Vertex 3 Z-coordinate {m}
    17.150000000000,         !- Vertex 4 X-coordinate {m}
    -0.950000000000,         !- Vertex 4 Y-coordinate {m}
    14.250000000000;         !- Vertex 4 Z-coordinate {m}

BuildingSurface:Detailed,
    9FD108,                  !- Name
    Wall,                    !- Surface Type
    Exterior Wall South,     !- Construction Name
    APTO04_P5,               !- Zone Name
    Outdoors,                !- Outside Boundary Condition
    ,                        !- Outside Boundary Condition Object
    SunExposed,              !- Sun Exposure
    WindExposed,             !- Wind Exposure
    ,                        !- View Factor to Ground
    4,                       !- Number of Vertices
    11.350000000000,         !- Vertex 1 X-coordinate {m}
    -6.750000000000,         !- Vertex 1 Y-coordinate {m}
    14.250000000000,         !- Vertex 1 Z-coordinate {m}
    11.350000000000,         !- Vertex 2 X-coordinate {m}
    -6.750000000000,         !- Vertex 2 Y-coordinate {m}
    11.400000000000,         !- Vertex 2 Z-coordinate {m}
    17.150000000000,         !- Vertex 3 X-coordinate {m}
    -6.750000000000,         !- Vertex 3 Y-coordinate {m}
    11.400000000000,         !- Vertex 3 Z-coordinate {m}
    17.150000000000,         !- Vertex 4 X-coordinate {m}
    -6.750000000000,         !- Vertex 4 Y-coordinate {m}
    14.250000000000;         !- Vertex 4 Z-coordinate {m}

BuildingSurface:Detailed,
    6E9130,                  !- Name
    Wall,                    !- Surface Type
    Exterior Wall West,      !- Construction Name
    APTO04_P5,               !- Zone Name
    Outdoors,                !- Outside Boundary Condition
    ,                        !- Outside Boundary Condition Object
    SunExposed,              !- Sun Exposure
    WindExposed,             !- Wind Exposure
    ,                        !- View Factor to Ground
    4,                       !- Number of Vertices
    11.350000000000,         !- Vertex 1 X-coordinate {m}
    -3.600000000000,         !- Vertex 1 Y-coordinate {m}
    14.250000000000,         !- Vertex 1 Z-coordinate {m}
    11.350000000000,         !- Vertex 2 X-coordinate {m}
    -3.600000000000,         !- Vertex 2 Y-coordinate {m}
    11.400000000000,         !- Vertex 2 Z-coordinate {m}
    11.350000000000,         !- Vertex 3 X-coordinate {m}
    -6.750000000000,         !- Vertex 3 Y-coordinate {m}
    11.400000000000,         !- Vertex 3 Z-coordinate {m}
    11.350000000000,         !- Vertex 4 X-coordinate {m}
    -6.750000000000,         !- Vertex 4 Y-coordinate {m}
    14.250000000000;         !- Vertex 4 Z-coordinate {m}

BuildingSurface:Detailed,
    396C2D,                  !- Name
    Wall,                    !- Surface Type
    Interior Wall,           !- Construction Name
    APTO04_P5,               !- Zone Name
    Surface,                 !- Outside Boundary Condition
    548C7F,                  !- Outside Boundary Condition Object
    NoSun,                   !- Sun Exposure
    NoWind,                  !- Wind Exposure
    ,                        !- View Factor to Ground
    4,                       !- Number of Vertices
    9.700000000000,          !- Vertex 1 X-coordinate {m}
    0.000000000000,          !- Vertex 1 Y-coordinate {m}
    14.250000000000,         !- Vertex 1 Z-coordinate {m}
    9.700000000000,          !- Vertex 2 X-coordinate {m}
    0.000000000000,          !- Vertex 2 Y-coordinate {m}
    11.400000000000,         !- Vertex 2 Z-coordinate {m}
    9.700000000000,          !- Vertex 3 X-coordinate {m}
    -3.600000000000,         !- Vertex 3 Y-coordinate {m}
    11.400000000000,         !- Vertex 3 Z-coordinate {m}
    9.700000000000,          !- Vertex 4 X-coordinate {m}
    -3.600000000000,         !- Vertex 4 Y-coordinate {m}
    14.250000000000;         !- Vertex 4 Z-coordinate {m}

BuildingSurface:Detailed,
    A9E92B,                  !- Name
    Wall,                    !- Surface Type
    Exterior Wall South,     !- Construction Name
    APTO04_P5,               !- Zone Name
    Outdoors,                !- Outside Boundary Condition
    ,                        !- Outside Boundary Condition Object
    SunExposed,              !- Sun Exposure
    WindExposed,             !- Wind Exposure
    ,                        !- View Factor to Ground
    4,                       !- Number of Vertices
    9.700000000000,          !- Vertex 1 X-coordinate {m}
    -3.600000000000,         !- Vertex 1 Y-coordinate {m}
    14.250000000000,         !- Vertex 1 Z-coordinate {m}
    9.700000000000,          !- Vertex 2 X-coordinate {m}
    -3.600000000000,         !- Vertex 2 Y-coordinate {m}
    11.400000000000,         !- Vertex 2 Z-coordinate {m}
    11.350000000000,         !- Vertex 3 X-coordinate {m}
    -3.600000000000,         !- Vertex 3 Y-coordinate {m}
    11.400000000000,         !- Vertex 3 Z-coordinate {m}
    11.350000000000,         !- Vertex 4 X-coordinate {m}
    -3.600000000000,         !- Vertex 4 Y-coordinate {m}
    14.250000000000;         !- Vertex 4 Z-coordinate {m}

BuildingSurface:Detailed,
    5956CB,                  !- Name
    Roof,                    !- Surface Type
    Exterior Roof,           !- Construction Name
    APTO02_P5,               !- Zone Name
    Outdoors,                !- Outside Boundary Condition
    ,                        !- Outside Boundary Condition Object
    SunExposed,              !- Sun Exposure
    WindExposed,             !- Wind Exposure
    ,                        !- View Factor to Ground
    8,                       !- Number of Vertices
    0.000000000000,          !- Vertex 1 X-coordinate {m}
    6.750000000000,          !- Vertex 1 Y-coordinate {m}
    14.250000000000,         !- Vertex 1 Z-coordinate {m}
    0.000000000000,          !- Vertex 2 X-coordinate {m}
    0.950000000000,          !- Vertex 2 Y-coordinate {m}
    14.250000000000,         !- Vertex 2 Z-coordinate {m}
    1.350000000000,          !- Vertex 3 X-coordinate {m}
    0.950000000000,          !- Vertex 3 Y-coordinate {m}
    14.250000000000,         !- Vertex 3 Z-coordinate {m}
    1.350000000000,          !- Vertex 4 X-coordinate {m}
    0.000000000000,          !- Vertex 4 Y-coordinate {m}
    14.250000000000,         !- Vertex 4 Z-coordinate {m}
    7.450000000000,          !- Vertex 5 X-coordinate {m}
    0.000000000000,          !- Vertex 5 Y-coordinate {m}
    14.250000000000,         !- Vertex 5 Z-coordinate {m}
    7.450000000000,          !- Vertex 6 X-coordinate {m}
    3.600000000000,          !- Vertex 6 Y-coordinate {m}
    14.250000000000,         !- Vertex 6 Z-coordinate {m}
    5.800000000000,          !- Vertex 7 X-coordinate {m}
    3.600000000000,          !- Vertex 7 Y-coordinate {m}
    14.250000000000,         !- Vertex 7 Z-coordinate {m}
    5.800000000000,          !- Vertex 8 X-coordinate {m}
    6.750000000000,          !- Vertex 8 Y-coordinate {m}
    14.250000000000;         !- Vertex 8 Z-coordinate {m}

BuildingSurface:Detailed,
    5EC898,                  !- Name
    Wall,                    !- Surface Type
    Interior Wall,           !- Construction Name
    APTO02_P5,               !- Zone Name
    Surface,                 !- Outside Boundary Condition
    BA31B5,                  !- Outside Boundary Condition Object
    NoSun,                   !- Sun Exposure
    NoWind,                  !- Wind Exposure
    ,                        !- View Factor to Ground
    4,                       !- Number of Vertices
    1.350000000000,          !- Vertex 1 X-coordinate {m}
    0.000000000000,          !- Vertex 1 Y-coordinate {m}
    14.250000000000,         !- Vertex 1 Z-coordinate {m}
    1.350000000000,          !- Vertex 2 X-coordinate {m}
    0.000000000000,          !- Vertex 2 Y-coordinate {m}
    11.400000000000,         !- Vertex 2 Z-coordinate {m}
    7.450000000000,          !- Vertex 3 X-coordinate {m}
    0.000000000000,          !- Vertex 3 Y-coordinate {m}
    11.400000000000,         !- Vertex 3 Z-coordinate {m}
    7.450000000000,          !- Vertex 4 X-coordinate {m}
    0.000000000000,          !- Vertex 4 Y-coordinate {m}
    14.250000000000;         !- Vertex 4 Z-coordinate {m}

BuildingSurface:Detailed,
    27112E,                  !- Name
    Wall,                    !- Surface Type
    Exterior Wall North,     !- Construction Name
    APTO02_P5,               !- Zone Name
    Outdoors,                !- Outside Boundary Condition
    ,                        !- Outside Boundary Condition Object
    SunExposed,              !- Sun Exposure
    WindExposed,             !- Wind Exposure
    ,                        !- View Factor to Ground
    4,                       !- Number of Vertices
    5.800000000000,          !- Vertex 1 X-coordinate {m}
    6.750000000000,          !- Vertex 1 Y-coordinate {m}
    14.250000000000,         !- Vertex 1 Z-coordinate {m}
    5.800000000000,          !- Vertex 2 X-coordinate {m}
    6.750000000000,          !- Vertex 2 Y-coordinate {m}
    11.400000000000,         !- Vertex 2 Z-coordinate {m}
    0.000000000000,          !- Vertex 3 X-coordinate {m}
    6.750000000000,          !- Vertex 3 Y-coordinate {m}
    11.400000000000,         !- Vertex 3 Z-coordinate {m}
    0.000000000000,          !- Vertex 4 X-coordinate {m}
    6.750000000000,          !- Vertex 4 Y-coordinate {m}
    14.250000000000;         !- Vertex 4 Z-coordinate {m}

BuildingSurface:Detailed,
    FE6803,                  !- Name
    Wall,                    !- Surface Type
    Exterior Wall West,      !- Construction Name
    APTO02_P5,               !- Zone Name
    Outdoors,                !- Outside Boundary Condition
    ,                        !- Outside Boundary Condition Object
    SunExposed,              !- Sun Exposure
    WindExposed,             !- Wind Exposure
    ,                        !- View Factor to Ground
    4,                       !- Number of Vertices
    1.350000000000,          !- Vertex 1 X-coordinate {m}
    0.950000000000,          !- Vertex 1 Y-coordinate {m}
    14.250000000000,         !- Vertex 1 Z-coordinate {m}
    1.350000000000,          !- Vertex 2 X-coordinate {m}
    0.950000000000,          !- Vertex 2 Y-coordinate {m}
    11.400000000000,         !- Vertex 2 Z-coordinate {m}
    1.350000000000,          !- Vertex 3 X-coordinate {m}
    0.000000000000,          !- Vertex 3 Y-coordinate {m}
    11.400000000000,         !- Vertex 3 Z-coordinate {m}
    1.350000000000,          !- Vertex 4 X-coordinate {m}
    0.000000000000,          !- Vertex 4 Y-coordinate {m}
    14.250000000000;         !- Vertex 4 Z-coordinate {m}

BuildingSurface:Detailed,
    6F2D86,                  !- Name
    Wall,                    !- Surface Type
    Exterior Wall North,     !- Construction Name
    APTO02_P5,               !- Zone Name
    Outdoors,                !- Outside Boundary Condition
    ,                        !- Outside Boundary Condition Object
    SunExposed,              !- Sun Exposure
    WindExposed,             !- Wind Exposure
    ,                        !- View Factor to Ground
    4,                       !- Number of Vertices
    7.450000000000,          !- Vertex 1 X-coordinate {m}
    3.600000000000,          !- Vertex 1 Y-coordinate {m}
    14.250000000000,         !- Vertex 1 Z-coordinate {m}
    7.450000000000,          !- Vertex 2 X-coordinate {m}
    3.600000000000,          !- Vertex 2 Y-coordinate {m}
    11.400000000000,         !- Vertex 2 Z-coordinate {m}
    5.800000000000,          !- Vertex 3 X-coordinate {m}
    3.600000000000,          !- Vertex 3 Y-coordinate {m}
    11.400000000000,         !- Vertex 3 Z-coordinate {m}
    5.800000000000,          !- Vertex 4 X-coordinate {m}
    3.600000000000,          !- Vertex 4 Y-coordinate {m}
    14.250000000000;         !- Vertex 4 Z-coordinate {m}

BuildingSurface:Detailed,
    4EF350,                  !- Name
    Wall,                    !- Surface Type
    Exterior Wall East,      !- Construction Name
    APTO02_P5,               !- Zone Name
    Outdoors,                !- Outside Boundary Condition
    ,                        !- Outside Boundary Condition Object
    SunExposed,              !- Sun Exposure
    WindExposed,             !- Wind Exposure
    ,                        !- View Factor to Ground
    4,                       !- Number of Vertices
    5.800000000000,          !- Vertex 1 X-coordinate {m}
    3.600000000000,          !- Vertex 1 Y-coordinate {m}
    14.250000000000,         !- Vertex 1 Z-coordinate {m}
    5.800000000000,          !- Vertex 2 X-coordinate {m}
    3.600000000000,          !- Vertex 2 Y-coordinate {m}
    11.400000000000,         !- Vertex 2 Z-coordinate {m}
    5.800000000000,          !- Vertex 3 X-coordinate {m}
    6.750000000000,          !- Vertex 3 Y-coordinate {m}
    11.400000000000,         !- Vertex 3 Z-coordinate {m}
    5.800000000000,          !- Vertex 4 X-coordinate {m}
    6.750000000000,          !- Vertex 4 Y-coordinate {m}
    14.250000000000;         !- Vertex 4 Z-coordinate {m}

BuildingSurface:Detailed,
    D2D669,                  !- Name
    Wall,                    !- Surface Type
    Interior Wall,           !- Construction Name
    APTO02_P5,               !- Zone Name
    Surface,                 !- Outside Boundary Condition
    2F4343,                  !- Outside Boundary Condition Object
    NoSun,                   !- Sun Exposure
    NoWind,                  !- Wind Exposure
    ,                        !- View Factor to Ground
    4,                       !- Number of Vertices
    7.450000000000,          !- Vertex 1 X-coordinate {m}
    0.000000000000,          !- Vertex 1 Y-coordinate {m}
    14.250000000000,         !- Vertex 1 Z-coordinate {m}
    7.450000000000,          !- Vertex 2 X-coordinate {m}
    0.000000000000,          !- Vertex 2 Y-coordinate {m}
    11.400000000000,         !- Vertex 2 Z-coordinate {m}
    7.450000000000,          !- Vertex 3 X-coordinate {m}
    3.600000000000,          !- Vertex 3 Y-coordinate {m}
    11.400000000000,         !- Vertex 3 Z-coordinate {m}
    7.450000000000,          !- Vertex 4 X-coordinate {m}
    3.600000000000,          !- Vertex 4 Y-coordinate {m}
    14.250000000000;         !- Vertex 4 Z-coordinate {m}

BuildingSurface:Detailed,
    5950C7,                  !- Name
    Wall,                    !- Surface Type
    Exterior Wall South,     !- Construction Name
    APTO02_P5,               !- Zone Name
    Outdoors,                !- Outside Boundary Condition
    ,                        !- Outside Boundary Condition Object
    SunExposed,              !- Sun Exposure
    WindExposed,             !- Wind Exposure
    ,                        !- View Factor to Ground
    4,                       !- Number of Vertices
    0.000000000000,          !- Vertex 1 X-coordinate {m}
    0.950000000000,          !- Vertex 1 Y-coordinate {m}
    14.250000000000,         !- Vertex 1 Z-coordinate {m}
    0.000000000000,          !- Vertex 2 X-coordinate {m}
    0.950000000000,          !- Vertex 2 Y-coordinate {m}
    11.400000000000,         !- Vertex 2 Z-coordinate {m}
    1.350000000000,          !- Vertex 3 X-coordinate {m}
    0.950000000000,          !- Vertex 3 Y-coordinate {m}
    11.400000000000,         !- Vertex 3 Z-coordinate {m}
    1.350000000000,          !- Vertex 4 X-coordinate {m}
    0.950000000000,          !- Vertex 4 Y-coordinate {m}
    14.250000000000;         !- Vertex 4 Z-coordinate {m}

BuildingSurface:Detailed,
    166A24,                  !- Name
    Wall,                    !- Surface Type
    Exterior Wall West,      !- Construction Name
    APTO02_P5,               !- Zone Name
    Outdoors,                !- Outside Boundary Condition
    ,                        !- Outside Boundary Condition Object
    SunExposed,              !- Sun Exposure
    WindExposed,             !- Wind Exposure
    ,                        !- View Factor to Ground
    4,                       !- Number of Vertices
    0.000000000000,          !- Vertex 1 X-coordinate {m}
    6.750000000000,          !- Vertex 1 Y-coordinate {m}
    14.250000000000,         !- Vertex 1 Z-coordinate {m}
    0.000000000000,          !- Vertex 2 X-coordinate {m}
    6.750000000000,          !- Vertex 2 Y-coordinate {m}
    11.400000000000,         !- Vertex 2 Z-coordinate {m}
    0.000000000000,          !- Vertex 3 X-coordinate {m}
    0.950000000000,          !- Vertex 3 Y-coordinate {m}
    11.400000000000,         !- Vertex 3 Z-coordinate {m}
    0.000000000000,          !- Vertex 4 X-coordinate {m}
    0.950000000000,          !- Vertex 4 Y-coordinate {m}
    14.250000000000;         !- Vertex 4 Z-coordinate {m}

BuildingSurface:Detailed,
    A27A1C,                  !- Name
    Floor,                   !- Surface Type
    Interior Floor,          !- Construction Name
    APTO02_P5,               !- Zone Name
    Surface,                 !- Outside Boundary Condition
    F923DB,                  !- Outside Boundary Condition Object
    NoSun,                   !- Sun Exposure
    NoWind,                  !- Wind Exposure
    ,                        !- View Factor to Ground
    8,                       !- Number of Vertices
    5.800000000000,          !- Vertex 1 X-coordinate {m}
    6.750000000000,          !- Vertex 1 Y-coordinate {m}
    11.400000000000,         !- Vertex 1 Z-coordinate {m}
    5.800000000000,          !- Vertex 2 X-coordinate {m}
    3.600000000000,          !- Vertex 2 Y-coordinate {m}
    11.400000000000,         !- Vertex 2 Z-coordinate {m}
    7.450000000000,          !- Vertex 3 X-coordinate {m}
    3.600000000000,          !- Vertex 3 Y-coordinate {m}
    11.400000000000,         !- Vertex 3 Z-coordinate {m}
    7.450000000000,          !- Vertex 4 X-coordinate {m}
    0.000000000000,          !- Vertex 4 Y-coordinate {m}
    11.400000000000,         !- Vertex 4 Z-coordinate {m}
    1.350000000000,          !- Vertex 5 X-coordinate {m}
    0.000000000000,          !- Vertex 5 Y-coordinate {m}
    11.400000000000,         !- Vertex 5 Z-coordinate {m}
    1.350000000000,          !- Vertex 6 X-coordinate {m}
    0.950000000000,          !- Vertex 6 Y-coordinate {m}
    11.400000000000,         !- Vertex 6 Z-coordinate {m}
    0.000000000000,          !- Vertex 7 X-coordinate {m}
    0.950000000000,          !- Vertex 7 Y-coordinate {m}
    11.400000000000,         !- Vertex 7 Z-coordinate {m}
    0.000000000000,          !- Vertex 8 X-coordinate {m}
    6.750000000000,          !- Vertex 8 Y-coordinate {m}
    11.400000000000;         !- Vertex 8 Z-coordinate {m}

BuildingSurface:Detailed,
    715667,                  !- Name
    Floor,                   !- Surface Type
    Interior Floor,          !- Construction Name
    CIRCULA_P5,              !- Zone Name
    Surface,                 !- Outside Boundary Condition
    CA1F33,                  !- Outside Boundary Condition Object
    NoSun,                   !- Sun Exposure
    NoWind,                  !- Wind Exposure
    ,                        !- View Factor to Ground
    4,                       !- Number of Vertices
    9.700000000000,          !- Vertex 1 X-coordinate {m}
    3.600000000000,          !- Vertex 1 Y-coordinate {m}
    11.400000000000,         !- Vertex 1 Z-coordinate {m}
    9.700000000000,          !- Vertex 2 X-coordinate {m}
    -3.600000000000,         !- Vertex 2 Y-coordinate {m}
    11.400000000000,         !- Vertex 2 Z-coordinate {m}
    7.450000000000,          !- Vertex 3 X-coordinate {m}
    -3.600000000000,         !- Vertex 3 Y-coordinate {m}
    11.400000000000,         !- Vertex 3 Z-coordinate {m}
    7.450000000000,          !- Vertex 4 X-coordinate {m}
    3.600000000000,          !- Vertex 4 Y-coordinate {m}
    11.400000000000;         !- Vertex 4 Z-coordinate {m}

BuildingSurface:Detailed,
    17052C,                  !- Name
    Roof,                    !- Surface Type
    Exterior Roof,           !- Construction Name
    CIRCULA_P5,              !- Zone Name
    Outdoors,                !- Outside Boundary Condition
    ,                        !- Outside Boundary Condition Object
    SunExposed,              !- Sun Exposure
    WindExposed,             !- Wind Exposure
    ,                        !- View Factor to Ground
    4,                       !- Number of Vertices
    7.450000000000,          !- Vertex 1 X-coordinate {m}
    3.600000000000,          !- Vertex 1 Y-coordinate {m}
    14.250000000000,         !- Vertex 1 Z-coordinate {m}
    7.450000000000,          !- Vertex 2 X-coordinate {m}
    -3.600000000000,         !- Vertex 2 Y-coordinate {m}
    14.250000000000,         !- Vertex 2 Z-coordinate {m}
    9.700000000000,          !- Vertex 3 X-coordinate {m}
    -3.600000000000,         !- Vertex 3 Y-coordinate {m}
    14.250000000000,         !- Vertex 3 Z-coordinate {m}
    9.700000000000,          !- Vertex 4 X-coordinate {m}
    3.600000000000,          !- Vertex 4 Y-coordinate {m}
    14.250000000000;         !- Vertex 4 Z-coordinate {m}

BuildingSurface:Detailed,
    35F374,                  !- Name
    Wall,                    !- Surface Type
    Interior Wall,           !- Construction Name
    CIRCULA_P5,              !- Zone Name
    Surface,                 !- Outside Boundary Condition
    3CAA8C,                  !- Outside Boundary Condition Object
    NoSun,                   !- Sun Exposure
    NoWind,                  !- Wind Exposure
    ,                        !- View Factor to Ground
    4,                       !- Number of Vertices
    9.700000000000,          !- Vertex 1 X-coordinate {m}
    0.000000000000,          !- Vertex 1 Y-coordinate {m}
    14.250000000000,         !- Vertex 1 Z-coordinate {m}
    9.700000000000,          !- Vertex 2 X-coordinate {m}
    0.000000000000,          !- Vertex 2 Y-coordinate {m}
    11.400000000000,         !- Vertex 2 Z-coordinate {m}
    9.700000000000,          !- Vertex 3 X-coordinate {m}
    3.600000000000,          !- Vertex 3 Y-coordinate {m}
    11.400000000000,         !- Vertex 3 Z-coordinate {m}
    9.700000000000,          !- Vertex 4 X-coordinate {m}
    3.600000000000,          !- Vertex 4 Y-coordinate {m}
    14.250000000000;         !- Vertex 4 Z-coordinate {m}

BuildingSurface:Detailed,
    53782F,                  !- Name
    Wall,                    !- Surface Type
    Exterior Wall North,     !- Construction Name
    CIRCULA_P5,              !- Zone Name
    Outdoors,                !- Outside Boundary Condition
    ,                        !- Outside Boundary Condition Object
    SunExposed,              !- Sun Exposure
    WindExposed,             !- Wind Exposure
    ,                        !- View Factor to Ground
    4,                       !- Number of Vertices
    7.450000000000,          !- Vertex 1 X-coordinate {m}
    -3.600000000000,         !- Vertex 1 Y-coordinate {m}
    14.250000000000,         !- Vertex 1 Z-coordinate {m}
    7.450000000000,          !- Vertex 2 X-coordinate {m}
    -3.600000000000,         !- Vertex 2 Y-coordinate {m}
    11.400000000000,         !- Vertex 2 Z-coordinate {m}
    9.700000000000,          !- Vertex 3 X-coordinate {m}
    -3.600000000000,         !- Vertex 3 Y-coordinate {m}
    11.400000000000,         !- Vertex 3 Z-coordinate {m}
    9.700000000000,          !- Vertex 4 X-coordinate {m}
    -3.600000000000,         !- Vertex 4 Y-coordinate {m}
    14.250000000000;         !- Vertex 4 Z-coordinate {m}

BuildingSurface:Detailed,
    627CF6,                  !- Name
    Wall,                    !- Surface Type
    Interior Wall,           !- Construction Name
    CIRCULA_P5,              !- Zone Name
    Surface,                 !- Outside Boundary Condition
    E95803,                  !- Outside Boundary Condition Object
    NoSun,                   !- Sun Exposure
    NoWind,                  !- Wind Exposure
    ,                        !- View Factor to Ground
    4,                       !- Number of Vertices
    7.450000000000,          !- Vertex 1 X-coordinate {m}
    0.000000000000,          !- Vertex 1 Y-coordinate {m}
    14.250000000000,         !- Vertex 1 Z-coordinate {m}
    7.450000000000,          !- Vertex 2 X-coordinate {m}
    0.000000000000,          !- Vertex 2 Y-coordinate {m}
    11.400000000000,         !- Vertex 2 Z-coordinate {m}
    7.450000000000,          !- Vertex 3 X-coordinate {m}
    -3.600000000000,         !- Vertex 3 Y-coordinate {m}
    11.400000000000,         !- Vertex 3 Z-coordinate {m}
    7.450000000000,          !- Vertex 4 X-coordinate {m}
    -3.600000000000,         !- Vertex 4 Y-coordinate {m}
    14.250000000000;         !- Vertex 4 Z-coordinate {m}

BuildingSurface:Detailed,
    DCB2E8,                  !- Name
    Wall,                    !- Surface Type
    Exterior Wall South,     !- Construction Name
    CIRCULA_P5,              !- Zone Name
    Outdoors,                !- Outside Boundary Condition
    ,                        !- Outside Boundary Condition Object
    SunExposed,              !- Sun Exposure
    WindExposed,             !- Wind Exposure
    ,                        !- View Factor to Ground
    4,                       !- Number of Vertices
    9.700000000000,          !- Vertex 1 X-coordinate {m}
    3.600000000000,          !- Vertex 1 Y-coordinate {m}
    14.250000000000,         !- Vertex 1 Z-coordinate {m}
    9.700000000000,          !- Vertex 2 X-coordinate {m}
    3.600000000000,          !- Vertex 2 Y-coordinate {m}
    11.400000000000,         !- Vertex 2 Z-coordinate {m}
    7.450000000000,          !- Vertex 3 X-coordinate {m}
    3.600000000000,          !- Vertex 3 Y-coordinate {m}
    11.400000000000,         !- Vertex 3 Z-coordinate {m}
    7.450000000000,          !- Vertex 4 X-coordinate {m}
    3.600000000000,          !- Vertex 4 Y-coordinate {m}
    14.250000000000;         !- Vertex 4 Z-coordinate {m}

BuildingSurface:Detailed,
    2F4343,                  !- Name
    Wall,                    !- Surface Type
    Interior Wall,           !- Construction Name
    CIRCULA_P5,              !- Zone Name
    Surface,                 !- Outside Boundary Condition
    D2D669,                  !- Outside Boundary Condition Object
    NoSun,                   !- Sun Exposure
    NoWind,                  !- Wind Exposure
    ,                        !- View Factor to Ground
    4,                       !- Number of Vertices
    7.450000000000,          !- Vertex 1 X-coordinate {m}
    3.600000000000,          !- Vertex 1 Y-coordinate {m}
    14.250000000000,         !- Vertex 1 Z-coordinate {m}
    7.450000000000,          !- Vertex 2 X-coordinate {m}
    3.600000000000,          !- Vertex 2 Y-coordinate {m}
    11.400000000000,         !- Vertex 2 Z-coordinate {m}
    7.450000000000,          !- Vertex 3 X-coordinate {m}
    0.000000000000,          !- Vertex 3 Y-coordinate {m}
    11.400000000000,         !- Vertex 3 Z-coordinate {m}
    7.450000000000,          !- Vertex 4 X-coordinate {m}
    0.000000000000,          !- Vertex 4 Y-coordinate {m}
    14.250000000000;         !- Vertex 4 Z-coordinate {m}

BuildingSurface:Detailed,
    548C7F,                  !- Name
    Wall,                    !- Surface Type
    Interior Wall,           !- Construction Name
    CIRCULA_P5,              !- Zone Name
    Surface,                 !- Outside Boundary Condition
    396C2D,                  !- Outside Boundary Condition Object
    NoSun,                   !- Sun Exposure
    NoWind,                  !- Wind Exposure
    ,                        !- View Factor to Ground
    4,                       !- Number of Vertices
    9.700000000000,          !- Vertex 1 X-coordinate {m}
    -3.600000000000,         !- Vertex 1 Y-coordinate {m}
    14.250000000000,         !- Vertex 1 Z-coordinate {m}
    9.700000000000,          !- Vertex 2 X-coordinate {m}
    -3.600000000000,         !- Vertex 2 Y-coordinate {m}
    11.400000000000,         !- Vertex 2 Z-coordinate {m}
    9.700000000000,          !- Vertex 3 X-coordinate {m}
    0.000000000000,          !- Vertex 3 Y-coordinate {m}
    11.400000000000,         !- Vertex 3 Z-coordinate {m}
    9.700000000000,          !- Vertex 4 X-coordinate {m}
    0.000000000000,          !- Vertex 4 Y-coordinate {m}
    14.250000000000;         !- Vertex 4 Z-coordinate {m}

BuildingSurface:Detailed,
    4BEDF4,                  !- Name
    Wall,                    !- Surface Type
    Exterior Wall South,     !- Construction Name
    APTO01_P5,               !- Zone Name
    Outdoors,                !- Outside Boundary Condition
    ,                        !- Outside Boundary Condition Object
    SunExposed,              !- Sun Exposure
    WindExposed,             !- Wind Exposure
    ,                        !- View Factor to Ground
    4,                       !- Number of Vertices
    5.800000000000,          !- Vertex 1 X-coordinate {m}
    -3.600000000000,         !- Vertex 1 Y-coordinate {m}
    14.250000000000,         !- Vertex 1 Z-coordinate {m}
    5.800000000000,          !- Vertex 2 X-coordinate {m}
    -3.600000000000,         !- Vertex 2 Y-coordinate {m}
    11.400000000000,         !- Vertex 2 Z-coordinate {m}
    7.450000000000,          !- Vertex 3 X-coordinate {m}
    -3.600000000000,         !- Vertex 3 Y-coordinate {m}
    11.400000000000,         !- Vertex 3 Z-coordinate {m}
    7.450000000000,          !- Vertex 4 X-coordinate {m}
    -3.600000000000,         !- Vertex 4 Y-coordinate {m}
    14.250000000000;         !- Vertex 4 Z-coordinate {m}

BuildingSurface:Detailed,
    ADF733,                  !- Name
    Wall,                    !- Surface Type
    Exterior Wall South,     !- Construction Name
    APTO01_P5,               !- Zone Name
    Outdoors,                !- Outside Boundary Condition
    ,                        !- Outside Boundary Condition Object
    SunExposed,              !- Sun Exposure
    WindExposed,             !- Wind Exposure
    ,                        !- View Factor to Ground
    4,                       !- Number of Vertices
    0.000000000000,          !- Vertex 1 X-coordinate {m}
    -6.750000000000,         !- Vertex 1 Y-coordinate {m}
    14.250000000000,         !- Vertex 1 Z-coordinate {m}
    0.000000000000,          !- Vertex 2 X-coordinate {m}
    -6.750000000000,         !- Vertex 2 Y-coordinate {m}
    11.400000000000,         !- Vertex 2 Z-coordinate {m}
    5.800000000000,          !- Vertex 3 X-coordinate {m}
    -6.750000000000,         !- Vertex 3 Y-coordinate {m}
    11.400000000000,         !- Vertex 3 Z-coordinate {m}
    5.800000000000,          !- Vertex 4 X-coordinate {m}
    -6.750000000000,         !- Vertex 4 Y-coordinate {m}
    14.250000000000;         !- Vertex 4 Z-coordinate {m}

BuildingSurface:Detailed,
    E95803,                  !- Name
    Wall,                    !- Surface Type
    Interior Wall,           !- Construction Name
    APTO01_P5,               !- Zone Name
    Surface,                 !- Outside Boundary Condition
    627CF6,                  !- Outside Boundary Condition Object
    NoSun,                   !- Sun Exposure
    NoWind,                  !- Wind Exposure
    ,                        !- View Factor to Ground
    4,                       !- Number of Vertices
    7.450000000000,          !- Vertex 1 X-coordinate {m}
    -3.600000000000,         !- Vertex 1 Y-coordinate {m}
    14.250000000000,         !- Vertex 1 Z-coordinate {m}
    7.450000000000,          !- Vertex 2 X-coordinate {m}
    -3.600000000000,         !- Vertex 2 Y-coordinate {m}
    11.400000000000,         !- Vertex 2 Z-coordinate {m}
    7.450000000000,          !- Vertex 3 X-coordinate {m}
    0.000000000000,          !- Vertex 3 Y-coordinate {m}
    11.400000000000,         !- Vertex 3 Z-coordinate {m}
    7.450000000000,          !- Vertex 4 X-coordinate {m}
    0.000000000000,          !- Vertex 4 Y-coordinate {m}
    14.250000000000;         !- Vertex 4 Z-coordinate {m}

BuildingSurface:Detailed,
    863EB5,                  !- Name
    Wall,                    !- Surface Type
    Exterior Wall North,     !- Construction Name
    APTO01_P5,               !- Zone Name
    Outdoors,                !- Outside Boundary Condition
    ,                        !- Outside Boundary Condition Object
    SunExposed,              !- Sun Exposure
    WindExposed,             !- Wind Exposure
    ,                        !- View Factor to Ground
    4,                       !- Number of Vertices
    1.350000000000,          !- Vertex 1 X-coordinate {m}
    -0.950000000000,         !- Vertex 1 Y-coordinate {m}
    14.250000000000,         !- Vertex 1 Z-coordinate {m}
    1.350000000000,          !- Vertex 2 X-coordinate {m}
    -0.950000000000,         !- Vertex 2 Y-coordinate {m}
    11.400000000000,         !- Vertex 2 Z-coordinate {m}
    0.000000000000,          !- Vertex 3 X-coordinate {m}
    -0.950000000000,         !- Vertex 3 Y-coordinate {m}
    11.400000000000,         !- Vertex 3 Z-coordinate {m}
    0.000000000000,          !- Vertex 4 X-coordinate {m}
    -0.950000000000,         !- Vertex 4 Y-coordinate {m}
    14.250000000000;         !- Vertex 4 Z-coordinate {m}

BuildingSurface:Detailed,
    8BF885,                  !- Name
    Roof,                    !- Surface Type
    Exterior Roof,           !- Construction Name
    APTO01_P5,               !- Zone Name
    Outdoors,                !- Outside Boundary Condition
    ,                        !- Outside Boundary Condition Object
    SunExposed,              !- Sun Exposure
    WindExposed,             !- Wind Exposure
    ,                        !- View Factor to Ground
    8,                       !- Number of Vertices
    0.000000000000,          !- Vertex 1 X-coordinate {m}
    -0.950000000000,         !- Vertex 1 Y-coordinate {m}
    14.250000000000,         !- Vertex 1 Z-coordinate {m}
    0.000000000000,          !- Vertex 2 X-coordinate {m}
    -6.750000000000,         !- Vertex 2 Y-coordinate {m}
    14.250000000000,         !- Vertex 2 Z-coordinate {m}
    5.800000000000,          !- Vertex 3 X-coordinate {m}
    -6.750000000000,         !- Vertex 3 Y-coordinate {m}
    14.250000000000,         !- Vertex 3 Z-coordinate {m}
    5.800000000000,          !- Vertex 4 X-coordinate {m}
    -3.600000000000,         !- Vertex 4 Y-coordinate {m}
    14.250000000000,         !- Vertex 4 Z-coordinate {m}
    7.450000000000,          !- Vertex 5 X-coordinate {m}
    -3.600000000000,         !- Vertex 5 Y-coordinate {m}
    14.250000000000,         !- Vertex 5 Z-coordinate {m}
    7.450000000000,          !- Vertex 6 X-coordinate {m}
    0.000000000000,          !- Vertex 6 Y-coordinate {m}
    14.250000000000,         !- Vertex 6 Z-coordinate {m}
    1.350000000000,          !- Vertex 7 X-coordinate {m}
    0.000000000000,          !- Vertex 7 Y-coordinate {m}
    14.250000000000,         !- Vertex 7 Z-coordinate {m}
    1.350000000000,          !- Vertex 8 X-coordinate {m}
    -0.950000000000,         !- Vertex 8 Y-coordinate {m}
    14.250000000000;         !- Vertex 8 Z-coordinate {m}

BuildingSurface:Detailed,
    BA859F,                  !- Name
    Wall,                    !- Surface Type
    Exterior Wall West,      !- Construction Name
    APTO01_P5,               !- Zone Name
    Outdoors,                !- Outside Boundary Condition
    ,                        !- Outside Boundary Condition Object
    SunExposed,              !- Sun Exposure
    WindExposed,             !- Wind Exposure
    ,                        !- View Factor to Ground
    4,                       !- Number of Vertices
    0.000000000000,          !- Vertex 1 X-coordinate {m}
    -0.950000000000,         !- Vertex 1 Y-coordinate {m}
    14.250000000000,         !- Vertex 1 Z-coordinate {m}
    0.000000000000,          !- Vertex 2 X-coordinate {m}
    -0.950000000000,         !- Vertex 2 Y-coordinate {m}
    11.400000000000,         !- Vertex 2 Z-coordinate {m}
    0.000000000000,          !- Vertex 3 X-coordinate {m}
    -6.750000000000,         !- Vertex 3 Y-coordinate {m}
    11.400000000000,         !- Vertex 3 Z-coordinate {m}
    0.000000000000,          !- Vertex 4 X-coordinate {m}
    -6.750000000000,         !- Vertex 4 Y-coordinate {m}
    14.250000000000;         !- Vertex 4 Z-coordinate {m}

BuildingSurface:Detailed,
    B5C759,                  !- Name
    Wall,                    !- Surface Type
    Exterior Wall West,      !- Construction Name
    APTO01_P5,               !- Zone Name
    Outdoors,                !- Outside Boundary Condition
    ,                        !- Outside Boundary Condition Object
    SunExposed,              !- Sun Exposure
    WindExposed,             !- Wind Exposure
    ,                        !- View Factor to Ground
    4,                       !- Number of Vertices
    1.350000000000,          !- Vertex 1 X-coordinate {m}
    0.000000000000,          !- Vertex 1 Y-coordinate {m}
    14.250000000000,         !- Vertex 1 Z-coordinate {m}
    1.350000000000,          !- Vertex 2 X-coordinate {m}
    0.000000000000,          !- Vertex 2 Y-coordinate {m}
    11.400000000000,         !- Vertex 2 Z-coordinate {m}
    1.350000000000,          !- Vertex 3 X-coordinate {m}
    -0.950000000000,         !- Vertex 3 Y-coordinate {m}
    11.400000000000,         !- Vertex 3 Z-coordinate {m}
    1.350000000000,          !- Vertex 4 X-coordinate {m}
    -0.950000000000,         !- Vertex 4 Y-coordinate {m}
    14.250000000000;         !- Vertex 4 Z-coordinate {m}

BuildingSurface:Detailed,
    BA31B5,                  !- Name
    Wall,                    !- Surface Type
    Interior Wall,           !- Construction Name
    APTO01_P5,               !- Zone Name
    Surface,                 !- Outside Boundary Condition
    5EC898,                  !- Outside Boundary Condition Object
    NoSun,                   !- Sun Exposure
    NoWind,                  !- Wind Exposure
    ,                        !- View Factor to Ground
    4,                       !- Number of Vertices
    7.450000000000,          !- Vertex 1 X-coordinate {m}
    0.000000000000,          !- Vertex 1 Y-coordinate {m}
    14.250000000000,         !- Vertex 1 Z-coordinate {m}
    7.450000000000,          !- Vertex 2 X-coordinate {m}
    0.000000000000,          !- Vertex 2 Y-coordinate {m}
    11.400000000000,         !- Vertex 2 Z-coordinate {m}
    1.350000000000,          !- Vertex 3 X-coordinate {m}
    0.000000000000,          !- Vertex 3 Y-coordinate {m}
    11.400000000000,         !- Vertex 3 Z-coordinate {m}
    1.350000000000,          !- Vertex 4 X-coordinate {m}
    0.000000000000,          !- Vertex 4 Y-coordinate {m}
    14.250000000000;         !- Vertex 4 Z-coordinate {m}

BuildingSurface:Detailed,
    E1B495,                  !- Name
    Floor,                   !- Surface Type
    Interior Floor,          !- Construction Name
    APTO01_P5,               !- Zone Name
    Surface,                 !- Outside Boundary Condition
    C1C0E8,                  !- Outside Boundary Condition Object
    NoSun,                   !- Sun Exposure
    NoWind,                  !- Wind Exposure
    ,                        !- View Factor to Ground
    8,                       !- Number of Vertices
    7.450000000000,          !- Vertex 1 X-coordinate {m}
    0.000000000000,          !- Vertex 1 Y-coordinate {m}
    11.400000000000,         !- Vertex 1 Z-coordinate {m}
    7.450000000000,          !- Vertex 2 X-coordinate {m}
    -3.600000000000,         !- Vertex 2 Y-coordinate {m}
    11.400000000000,         !- Vertex 2 Z-coordinate {m}
    5.800000000000,          !- Vertex 3 X-coordinate {m}
    -3.600000000000,         !- Vertex 3 Y-coordinate {m}
    11.400000000000,         !- Vertex 3 Z-coordinate {m}
    5.800000000000,          !- Vertex 4 X-coordinate {m}
    -6.750000000000,         !- Vertex 4 Y-coordinate {m}
    11.400000000000,         !- Vertex 4 Z-coordinate {m}
    0.000000000000,          !- Vertex 5 X-coordinate {m}
    -6.750000000000,         !- Vertex 5 Y-coordinate {m}
    11.400000000000,         !- Vertex 5 Z-coordinate {m}
    0.000000000000,          !- Vertex 6 X-coordinate {m}
    -0.950000000000,         !- Vertex 6 Y-coordinate {m}
    11.400000000000,         !- Vertex 6 Z-coordinate {m}
    1.350000000000,          !- Vertex 7 X-coordinate {m}
    -0.950000000000,         !- Vertex 7 Y-coordinate {m}
    11.400000000000,         !- Vertex 7 Z-coordinate {m}
    1.350000000000,          !- Vertex 8 X-coordinate {m}
    0.000000000000,          !- Vertex 8 Y-coordinate {m}
    11.400000000000;         !- Vertex 8 Z-coordinate {m}

BuildingSurface:Detailed,
    3CDB46,                  !- Name
    Wall,                    !- Surface Type
    Exterior Wall East,      !- Construction Name
    APTO01_P5,               !- Zone Name
    Outdoors,                !- Outside Boundary Condition
    ,                        !- Outside Boundary Condition Object
    SunExposed,              !- Sun Exposure
    WindExposed,             !- Wind Exposure
    ,                        !- View Factor to Ground
    4,                       !- Number of Vertices
    5.800000000000,          !- Vertex 1 X-coordinate {m}
    -6.750000000000,         !- Vertex 1 Y-coordinate {m}
    14.250000000000,         !- Vertex 1 Z-coordinate {m}
    5.800000000000,          !- Vertex 2 X-coordinate {m}
    -6.750000000000,         !- Vertex 2 Y-coordinate {m}
    11.400000000000,         !- Vertex 2 Z-coordinate {m}
    5.800000000000,          !- Vertex 3 X-coordinate {m}
    -3.600000000000,         !- Vertex 3 Y-coordinate {m}
    11.400000000000,         !- Vertex 3 Z-coordinate {m}
    5.800000000000,          !- Vertex 4 X-coordinate {m}
    -3.600000000000,         !- Vertex 4 Y-coordinate {m}
    14.250000000000;         !- Vertex 4 Z-coordinate {m}


!-   ===========  ALL OBJECTS IN CLASS: FENESTRATIONSURFACE:DETAILED ===========

FenestrationSurface:Detailed,
    P1_W06,                  !- Name
    Window,                  !- Surface Type
    Exterior Window,         !- Construction Name
    AC29BB,                  !- Building Surface Name
    ,                        !- Outside Boundary Condition Object
    ,                        !- View Factor to Ground
    ,                        !- Frame and Divider Name
    ,                        !- Multiplier
    4,                       !- Number of Vertices
    2.150000000000,          !- Vertex 1 X-coordinate {m}
    6.750000000000,          !- Vertex 1 Y-coordinate {m}
    2.100000000000,          !- Vertex 1 Z-coordinate {m}
    2.150000000000,          !- Vertex 2 X-coordinate {m}
    6.750000000000,          !- Vertex 2 Y-coordinate {m}
    1.100000000000,          !- Vertex 2 Z-coordinate {m}
    0.950000000000,          !- Vertex 3 X-coordinate {m}
    6.750000000000,          !- Vertex 3 Y-coordinate {m}
    1.100000000000,          !- Vertex 3 Z-coordinate {m}
    0.950000000000,          !- Vertex 4 X-coordinate {m}
    6.750000000000,          !- Vertex 4 Y-coordinate {m}
    2.100000000000;          !- Vertex 4 Z-coordinate {m}

FenestrationSurface:Detailed,
    P1_W07,                  !- Name
    Window,                  !- Surface Type
    Exterior Window,         !- Construction Name
    AC29BB,                  !- Building Surface Name
    ,                        !- Outside Boundary Condition Object
    ,                        !- View Factor to Ground
    ,                        !- Frame and Divider Name
    ,                        !- Multiplier
    4,                       !- Number of Vertices
    4.900000000000,          !- Vertex 1 X-coordinate {m}
    6.750000000000,          !- Vertex 1 Y-coordinate {m}
    2.100000000000,          !- Vertex 1 Z-coordinate {m}
    4.900000000000,          !- Vertex 2 X-coordinate {m}
    6.750000000000,          !- Vertex 2 Y-coordinate {m}
    1.100000000000,          !- Vertex 2 Z-coordinate {m}
    3.700000000000,          !- Vertex 3 X-coordinate {m}
    6.750000000000,          !- Vertex 3 Y-coordinate {m}
    1.100000000000,          !- Vertex 3 Z-coordinate {m}
    3.700000000000,          !- Vertex 4 X-coordinate {m}
    6.750000000000,          !- Vertex 4 Y-coordinate {m}
    2.100000000000;          !- Vertex 4 Z-coordinate {m}

FenestrationSurface:Detailed,
    P1_W08 (Door),           !- Name
    Window,                  !- Surface Type
    Exterior Window,         !- Construction Name
    80036F,                  !- Building Surface Name
    ,                        !- Outside Boundary Condition Object
    ,                        !- View Factor to Ground
    ,                        !- Frame and Divider Name
    ,                        !- Multiplier
    4,                       !- Number of Vertices
    7.225000000000,          !- Vertex 1 X-coordinate {m}
    3.600000000000,          !- Vertex 1 Y-coordinate {m}
    2.100000000000,          !- Vertex 1 Z-coordinate {m}
    7.225000000000,          !- Vertex 2 X-coordinate {m}
    3.600000000000,          !- Vertex 2 Y-coordinate {m}
    0.050000000000,          !- Vertex 2 Z-coordinate {m}
    6.025000000000,          !- Vertex 3 X-coordinate {m}
    3.600000000000,          !- Vertex 3 Y-coordinate {m}
    0.050000000000,          !- Vertex 3 Z-coordinate {m}
    6.025000000000,          !- Vertex 4 X-coordinate {m}
    3.600000000000,          !- Vertex 4 Y-coordinate {m}
    2.100000000000;          !- Vertex 4 Z-coordinate {m}

FenestrationSurface:Detailed,
    P1_W01,                  !- Name
    Window,                  !- Surface Type
    Exterior Window,         !- Construction Name
    107503,                  !- Building Surface Name
    ,                        !- Outside Boundary Condition Object
    ,                        !- View Factor to Ground
    ,                        !- Frame and Divider Name
    ,                        !- Multiplier
    4,                       !- Number of Vertices
    0.950000000000,          !- Vertex 1 X-coordinate {m}
    -6.750000000000,         !- Vertex 1 Y-coordinate {m}
    2.100000000000,          !- Vertex 1 Z-coordinate {m}
    0.950000000000,          !- Vertex 2 X-coordinate {m}
    -6.750000000000,         !- Vertex 2 Y-coordinate {m}
    1.100000000000,          !- Vertex 2 Z-coordinate {m}
    2.150000000000,          !- Vertex 3 X-coordinate {m}
    -6.750000000000,         !- Vertex 3 Y-coordinate {m}
    1.100000000000,          !- Vertex 3 Z-coordinate {m}
    2.150000000000,          !- Vertex 4 X-coordinate {m}
    -6.750000000000,         !- Vertex 4 Y-coordinate {m}
    2.100000000000;          !- Vertex 4 Z-coordinate {m}

FenestrationSurface:Detailed,
    P1_W02,                  !- Name
    Window,                  !- Surface Type
    Exterior Window,         !- Construction Name
    107503,                  !- Building Surface Name
    ,                        !- Outside Boundary Condition Object
    ,                        !- View Factor to Ground
    ,                        !- Frame and Divider Name
    ,                        !- Multiplier
    4,                       !- Number of Vertices
    3.700000000000,          !- Vertex 1 X-coordinate {m}
    -6.750000000000,         !- Vertex 1 Y-coordinate {m}
    2.100000000000,          !- Vertex 1 Z-coordinate {m}
    3.700000000000,          !- Vertex 2 X-coordinate {m}
    -6.750000000000,         !- Vertex 2 Y-coordinate {m}
    1.100000000000,          !- Vertex 2 Z-coordinate {m}
    4.900000000000,          !- Vertex 3 X-coordinate {m}
    -6.750000000000,         !- Vertex 3 Y-coordinate {m}
    1.100000000000,          !- Vertex 3 Z-coordinate {m}
    4.900000000000,          !- Vertex 4 X-coordinate {m}
    -6.750000000000,         !- Vertex 4 Y-coordinate {m}
    2.100000000000;          !- Vertex 4 Z-coordinate {m}

FenestrationSurface:Detailed,
    P1_W03 (Door),           !- Name
    Window,                  !- Surface Type
    Exterior Window,         !- Construction Name
    321E96,                  !- Building Surface Name
    ,                        !- Outside Boundary Condition Object
    ,                        !- View Factor to Ground
    ,                        !- Frame and Divider Name
    ,                        !- Multiplier
    4,                       !- Number of Vertices
    6.075000000000,          !- Vertex 1 X-coordinate {m}
    -3.600000000000,         !- Vertex 1 Y-coordinate {m}
    2.100000000000,          !- Vertex 1 Z-coordinate {m}
    6.075000000000,          !- Vertex 2 X-coordinate {m}
    -3.600000000000,         !- Vertex 2 Y-coordinate {m}
    0.050000000000,          !- Vertex 2 Z-coordinate {m}
    7.275000000000,          !- Vertex 3 X-coordinate {m}
    -3.600000000000,         !- Vertex 3 Y-coordinate {m}
    0.050000000000,          !- Vertex 3 Z-coordinate {m}
    7.275000000000,          !- Vertex 4 X-coordinate {m}
    -3.600000000000,         !- Vertex 4 Y-coordinate {m}
    2.100000000000;          !- Vertex 4 Z-coordinate {m}

FenestrationSurface:Detailed,
    P1_W11,                  !- Name
    Window,                  !- Surface Type
    Exterior Window,         !- Construction Name
    893457,                  !- Building Surface Name
    ,                        !- Outside Boundary Condition Object
    ,                        !- View Factor to Ground
    ,                        !- Frame and Divider Name
    ,                        !- Multiplier
    4,                       !- Number of Vertices
    16.200000000000,         !- Vertex 1 X-coordinate {m}
    6.750000000000,          !- Vertex 1 Y-coordinate {m}
    2.100000000000,          !- Vertex 1 Z-coordinate {m}
    16.200000000000,         !- Vertex 2 X-coordinate {m}
    6.750000000000,          !- Vertex 2 Y-coordinate {m}
    1.100000000000,          !- Vertex 2 Z-coordinate {m}
    15.000000000000,         !- Vertex 3 X-coordinate {m}
    6.750000000000,          !- Vertex 3 Y-coordinate {m}
    1.100000000000,          !- Vertex 3 Z-coordinate {m}
    15.000000000000,         !- Vertex 4 X-coordinate {m}
    6.750000000000,          !- Vertex 4 Y-coordinate {m}
    2.100000000000;          !- Vertex 4 Z-coordinate {m}

FenestrationSurface:Detailed,
    P1_W12,                  !- Name
    Window,                  !- Surface Type
    Exterior Window,         !- Construction Name
    893457,                  !- Building Surface Name
    ,                        !- Outside Boundary Condition Object
    ,                        !- View Factor to Ground
    ,                        !- Frame and Divider Name
    ,                        !- Multiplier
    4,                       !- Number of Vertices
    13.450000000000,         !- Vertex 1 X-coordinate {m}
    6.750000000000,          !- Vertex 1 Y-coordinate {m}
    2.100000000000,          !- Vertex 1 Z-coordinate {m}
    13.450000000000,         !- Vertex 2 X-coordinate {m}
    6.750000000000,          !- Vertex 2 Y-coordinate {m}
    1.100000000000,          !- Vertex 2 Z-coordinate {m}
    12.250000000000,         !- Vertex 3 X-coordinate {m}
    6.750000000000,          !- Vertex 3 Y-coordinate {m}
    1.100000000000,          !- Vertex 3 Z-coordinate {m}
    12.250000000000,         !- Vertex 4 X-coordinate {m}
    6.750000000000,          !- Vertex 4 Y-coordinate {m}
    2.100000000000;          !- Vertex 4 Z-coordinate {m}

FenestrationSurface:Detailed,
    P1_W13 (Door),           !- Name
    Window,                  !- Surface Type
    Exterior Window,         !- Construction Name
    AC4F9B,                  !- Building Surface Name
    ,                        !- Outside Boundary Condition Object
    ,                        !- View Factor to Ground
    ,                        !- Frame and Divider Name
    ,                        !- Multiplier
    4,                       !- Number of Vertices
    11.075000000000,         !- Vertex 1 X-coordinate {m}
    3.600000000000,          !- Vertex 1 Y-coordinate {m}
    2.100000000000,          !- Vertex 1 Z-coordinate {m}
    11.075000000000,         !- Vertex 2 X-coordinate {m}
    3.600000000000,          !- Vertex 2 Y-coordinate {m}
    0.050000000000,          !- Vertex 2 Z-coordinate {m}
    9.875000000000,          !- Vertex 3 X-coordinate {m}
    3.600000000000,          !- Vertex 3 Y-coordinate {m}
    0.050000000000,          !- Vertex 3 Z-coordinate {m}
    9.875000000000,          !- Vertex 4 X-coordinate {m}
    3.600000000000,          !- Vertex 4 Y-coordinate {m}
    2.100000000000;          !- Vertex 4 Z-coordinate {m}

FenestrationSurface:Detailed,
    P1_W16,                  !- Name
    Window,                  !- Surface Type
    Exterior Window,         !- Construction Name
    1E9817,                  !- Building Surface Name
    ,                        !- Outside Boundary Condition Object
    ,                        !- View Factor to Ground
    ,                        !- Frame and Divider Name
    ,                        !- Multiplier
    4,                       !- Number of Vertices
    15.000000000000,         !- Vertex 1 X-coordinate {m}
    -6.750000000000,         !- Vertex 1 Y-coordinate {m}
    2.100000000000,          !- Vertex 1 Z-coordinate {m}
    15.000000000000,         !- Vertex 2 X-coordinate {m}
    -6.750000000000,         !- Vertex 2 Y-coordinate {m}
    1.100000000000,          !- Vertex 2 Z-coordinate {m}
    16.200000000000,         !- Vertex 3 X-coordinate {m}
    -6.750000000000,         !- Vertex 3 Y-coordinate {m}
    1.100000000000,          !- Vertex 3 Z-coordinate {m}
    16.200000000000,         !- Vertex 4 X-coordinate {m}
    -6.750000000000,         !- Vertex 4 Y-coordinate {m}
    2.100000000000;          !- Vertex 4 Z-coordinate {m}

FenestrationSurface:Detailed,
    P1_W17,                  !- Name
    Window,                  !- Surface Type
    Exterior Window,         !- Construction Name
    1E9817,                  !- Building Surface Name
    ,                        !- Outside Boundary Condition Object
    ,                        !- View Factor to Ground
    ,                        !- Frame and Divider Name
    ,                        !- Multiplier
    4,                       !- Number of Vertices
    12.250000000000,         !- Vertex 1 X-coordinate {m}
    -6.750000000000,         !- Vertex 1 Y-coordinate {m}
    2.100000000000,          !- Vertex 1 Z-coordinate {m}
    12.250000000000,         !- Vertex 2 X-coordinate {m}
    -6.750000000000,         !- Vertex 2 Y-coordinate {m}
    1.100000000000,          !- Vertex 2 Z-coordinate {m}
    13.450000000000,         !- Vertex 3 X-coordinate {m}
    -6.750000000000,         !- Vertex 3 Y-coordinate {m}
    1.100000000000,          !- Vertex 3 Z-coordinate {m}
    13.450000000000,         !- Vertex 4 X-coordinate {m}
    -6.750000000000,         !- Vertex 4 Y-coordinate {m}
    2.100000000000;          !- Vertex 4 Z-coordinate {m}

FenestrationSurface:Detailed,
    P1_W18 (Door),           !- Name
    Window,                  !- Surface Type
    Exterior Window,         !- Construction Name
    38CE97,                  !- Building Surface Name
    ,                        !- Outside Boundary Condition Object
    ,                        !- View Factor to Ground
    ,                        !- Frame and Divider Name
    ,                        !- Multiplier
    4,                       !- Number of Vertices
    9.925000000000,          !- Vertex 1 X-coordinate {m}
    -3.600000000000,         !- Vertex 1 Y-coordinate {m}
    2.100000000000,          !- Vertex 1 Z-coordinate {m}
    9.925000000000,          !- Vertex 2 X-coordinate {m}
    -3.600000000000,         !- Vertex 2 Y-coordinate {m}
    0.050000000000,          !- Vertex 2 Z-coordinate {m}
    11.125000000000,         !- Vertex 3 X-coordinate {m}
    -3.600000000000,         !- Vertex 3 Y-coordinate {m}
    0.050000000000,          !- Vertex 3 Z-coordinate {m}
    11.125000000000,         !- Vertex 4 X-coordinate {m}
    -3.600000000000,         !- Vertex 4 Y-coordinate {m}
    2.100000000000;          !- Vertex 4 Z-coordinate {m}

FenestrationSurface:Detailed,
    P2_W13 (Door),           !- Name
    Window,                  !- Surface Type
    Exterior Window,         !- Construction Name
    106BCA,                  !- Building Surface Name
    ,                        !- Outside Boundary Condition Object
    ,                        !- View Factor to Ground
    ,                        !- Frame and Divider Name
    ,                        !- Multiplier
    4,                       !- Number of Vertices
    11.075000000000,         !- Vertex 1 X-coordinate {m}
    3.600000000000,          !- Vertex 1 Y-coordinate {m}
    4.950000000000,          !- Vertex 1 Z-coordinate {m}
    11.075000000000,         !- Vertex 2 X-coordinate {m}
    3.600000000000,          !- Vertex 2 Y-coordinate {m}
    2.900000000000,          !- Vertex 2 Z-coordinate {m}
    9.875000000000,          !- Vertex 3 X-coordinate {m}
    3.600000000000,          !- Vertex 3 Y-coordinate {m}
    2.900000000000,          !- Vertex 3 Z-coordinate {m}
    9.875000000000,          !- Vertex 4 X-coordinate {m}
    3.600000000000,          !- Vertex 4 Y-coordinate {m}
    4.950000000000;          !- Vertex 4 Z-coordinate {m}

FenestrationSurface:Detailed,
    P2_W12,                  !- Name
    Window,                  !- Surface Type
    Exterior Window,         !- Construction Name
    6467CA,                  !- Building Surface Name
    ,                        !- Outside Boundary Condition Object
    ,                        !- View Factor to Ground
    ,                        !- Frame and Divider Name
    ,                        !- Multiplier
    4,                       !- Number of Vertices
    13.450000000000,         !- Vertex 1 X-coordinate {m}
    6.750000000000,          !- Vertex 1 Y-coordinate {m}
    4.950000000000,          !- Vertex 1 Z-coordinate {m}
    13.450000000000,         !- Vertex 2 X-coordinate {m}
    6.750000000000,          !- Vertex 2 Y-coordinate {m}
    3.950000000000,          !- Vertex 2 Z-coordinate {m}
    12.250000000000,         !- Vertex 3 X-coordinate {m}
    6.750000000000,          !- Vertex 3 Y-coordinate {m}
    3.950000000000,          !- Vertex 3 Z-coordinate {m}
    12.250000000000,         !- Vertex 4 X-coordinate {m}
    6.750000000000,          !- Vertex 4 Y-coordinate {m}
    4.950000000000;          !- Vertex 4 Z-coordinate {m}

FenestrationSurface:Detailed,
    P2_W11,                  !- Name
    Window,                  !- Surface Type
    Exterior Window,         !- Construction Name
    6467CA,                  !- Building Surface Name
    ,                        !- Outside Boundary Condition Object
    ,                        !- View Factor to Ground
    ,                        !- Frame and Divider Name
    ,                        !- Multiplier
    4,                       !- Number of Vertices
    16.200000000000,         !- Vertex 1 X-coordinate {m}
    6.750000000000,          !- Vertex 1 Y-coordinate {m}
    4.950000000000,          !- Vertex 1 Z-coordinate {m}
    16.200000000000,         !- Vertex 2 X-coordinate {m}
    6.750000000000,          !- Vertex 2 Y-coordinate {m}
    3.950000000000,          !- Vertex 2 Z-coordinate {m}
    15.000000000000,         !- Vertex 3 X-coordinate {m}
    6.750000000000,          !- Vertex 3 Y-coordinate {m}
    3.950000000000,          !- Vertex 3 Z-coordinate {m}
    15.000000000000,         !- Vertex 4 X-coordinate {m}
    6.750000000000,          !- Vertex 4 Y-coordinate {m}
    4.950000000000;          !- Vertex 4 Z-coordinate {m}

FenestrationSurface:Detailed,
    P2_W18 (Door),           !- Name
    Window,                  !- Surface Type
    Exterior Window,         !- Construction Name
    6E210F,                  !- Building Surface Name
    ,                        !- Outside Boundary Condition Object
    ,                        !- View Factor to Ground
    ,                        !- Frame and Divider Name
    ,                        !- Multiplier
    4,                       !- Number of Vertices
    9.925000000000,          !- Vertex 1 X-coordinate {m}
    -3.600000000000,         !- Vertex 1 Y-coordinate {m}
    4.950000000000,          !- Vertex 1 Z-coordinate {m}
    9.925000000000,          !- Vertex 2 X-coordinate {m}
    -3.600000000000,         !- Vertex 2 Y-coordinate {m}
    2.900000000000,          !- Vertex 2 Z-coordinate {m}
    11.125000000000,         !- Vertex 3 X-coordinate {m}
    -3.600000000000,         !- Vertex 3 Y-coordinate {m}
    2.900000000000,          !- Vertex 3 Z-coordinate {m}
    11.125000000000,         !- Vertex 4 X-coordinate {m}
    -3.600000000000,         !- Vertex 4 Y-coordinate {m}
    4.950000000000;          !- Vertex 4 Z-coordinate {m}

FenestrationSurface:Detailed,
    P2_W17,                  !- Name
    Window,                  !- Surface Type
    Exterior Window,         !- Construction Name
    85B4B0,                  !- Building Surface Name
    ,                        !- Outside Boundary Condition Object
    ,                        !- View Factor to Ground
    ,                        !- Frame and Divider Name
    ,                        !- Multiplier
    4,                       !- Number of Vertices
    12.250000000000,         !- Vertex 1 X-coordinate {m}
    -6.750000000000,         !- Vertex 1 Y-coordinate {m}
    4.950000000000,          !- Vertex 1 Z-coordinate {m}
    12.250000000000,         !- Vertex 2 X-coordinate {m}
    -6.750000000000,         !- Vertex 2 Y-coordinate {m}
    3.950000000000,          !- Vertex 2 Z-coordinate {m}
    13.450000000000,         !- Vertex 3 X-coordinate {m}
    -6.750000000000,         !- Vertex 3 Y-coordinate {m}
    3.950000000000,          !- Vertex 3 Z-coordinate {m}
    13.450000000000,         !- Vertex 4 X-coordinate {m}
    -6.750000000000,         !- Vertex 4 Y-coordinate {m}
    4.950000000000;          !- Vertex 4 Z-coordinate {m}

FenestrationSurface:Detailed,
    P2_W16,                  !- Name
    Window,                  !- Surface Type
    Exterior Window,         !- Construction Name
    85B4B0,                  !- Building Surface Name
    ,                        !- Outside Boundary Condition Object
    ,                        !- View Factor to Ground
    ,                        !- Frame and Divider Name
    ,                        !- Multiplier
    4,                       !- Number of Vertices
    15.000000000000,         !- Vertex 1 X-coordinate {m}
    -6.750000000000,         !- Vertex 1 Y-coordinate {m}
    4.950000000000,          !- Vertex 1 Z-coordinate {m}
    15.000000000000,         !- Vertex 2 X-coordinate {m}
    -6.750000000000,         !- Vertex 2 Y-coordinate {m}
    3.950000000000,          !- Vertex 2 Z-coordinate {m}
    16.200000000000,         !- Vertex 3 X-coordinate {m}
    -6.750000000000,         !- Vertex 3 Y-coordinate {m}
    3.950000000000,          !- Vertex 3 Z-coordinate {m}
    16.200000000000,         !- Vertex 4 X-coordinate {m}
    -6.750000000000,         !- Vertex 4 Y-coordinate {m}
    4.950000000000;          !- Vertex 4 Z-coordinate {m}

FenestrationSurface:Detailed,
    P2_W08 (Door),           !- Name
    Window,                  !- Surface Type
    Exterior Window,         !- Construction Name
    742013,                  !- Building Surface Name
    ,                        !- Outside Boundary Condition Object
    ,                        !- View Factor to Ground
    ,                        !- Frame and Divider Name
    ,                        !- Multiplier
    4,                       !- Number of Vertices
    7.225000000000,          !- Vertex 1 X-coordinate {m}
    3.600000000000,          !- Vertex 1 Y-coordinate {m}
    4.950000000000,          !- Vertex 1 Z-coordinate {m}
    7.225000000000,          !- Vertex 2 X-coordinate {m}
    3.600000000000,          !- Vertex 2 Y-coordinate {m}
    2.900000000000,          !- Vertex 2 Z-coordinate {m}
    6.025000000000,          !- Vertex 3 X-coordinate {m}
    3.600000000000,          !- Vertex 3 Y-coordinate {m}
    2.900000000000,          !- Vertex 3 Z-coordinate {m}
    6.025000000000,          !- Vertex 4 X-coordinate {m}
    3.600000000000,          !- Vertex 4 Y-coordinate {m}
    4.950000000000;          !- Vertex 4 Z-coordinate {m}

FenestrationSurface:Detailed,
    P2_W07,                  !- Name
    Window,                  !- Surface Type
    Exterior Window,         !- Construction Name
    3864D8,                  !- Building Surface Name
    ,                        !- Outside Boundary Condition Object
    ,                        !- View Factor to Ground
    ,                        !- Frame and Divider Name
    ,                        !- Multiplier
    4,                       !- Number of Vertices
    4.900000000000,          !- Vertex 1 X-coordinate {m}
    6.750000000000,          !- Vertex 1 Y-coordinate {m}
    4.950000000000,          !- Vertex 1 Z-coordinate {m}
    4.900000000000,          !- Vertex 2 X-coordinate {m}
    6.750000000000,          !- Vertex 2 Y-coordinate {m}
    3.950000000000,          !- Vertex 2 Z-coordinate {m}
    3.700000000000,          !- Vertex 3 X-coordinate {m}
    6.750000000000,          !- Vertex 3 Y-coordinate {m}
    3.950000000000,          !- Vertex 3 Z-coordinate {m}
    3.700000000000,          !- Vertex 4 X-coordinate {m}
    6.750000000000,          !- Vertex 4 Y-coordinate {m}
    4.950000000000;          !- Vertex 4 Z-coordinate {m}

FenestrationSurface:Detailed,
    P2_W06,                  !- Name
    Window,                  !- Surface Type
    Exterior Window,         !- Construction Name
    3864D8,                  !- Building Surface Name
    ,                        !- Outside Boundary Condition Object
    ,                        !- View Factor to Ground
    ,                        !- Frame and Divider Name
    ,                        !- Multiplier
    4,                       !- Number of Vertices
    2.150000000000,          !- Vertex 1 X-coordinate {m}
    6.750000000000,          !- Vertex 1 Y-coordinate {m}
    4.950000000000,          !- Vertex 1 Z-coordinate {m}
    2.150000000000,          !- Vertex 2 X-coordinate {m}
    6.750000000000,          !- Vertex 2 Y-coordinate {m}
    3.950000000000,          !- Vertex 2 Z-coordinate {m}
    0.950000000000,          !- Vertex 3 X-coordinate {m}
    6.750000000000,          !- Vertex 3 Y-coordinate {m}
    3.950000000000,          !- Vertex 3 Z-coordinate {m}
    0.950000000000,          !- Vertex 4 X-coordinate {m}
    6.750000000000,          !- Vertex 4 Y-coordinate {m}
    4.950000000000;          !- Vertex 4 Z-coordinate {m}

FenestrationSurface:Detailed,
    P2_W03 (Door),           !- Name
    Window,                  !- Surface Type
    Exterior Window,         !- Construction Name
    998974,                  !- Building Surface Name
    ,                        !- Outside Boundary Condition Object
    ,                        !- View Factor to Ground
    ,                        !- Frame and Divider Name
    ,                        !- Multiplier
    4,                       !- Number of Vertices
    6.075000000000,          !- Vertex 1 X-coordinate {m}
    -3.600000000000,         !- Vertex 1 Y-coordinate {m}
    4.950000000000,          !- Vertex 1 Z-coordinate {m}
    6.075000000000,          !- Vertex 2 X-coordinate {m}
    -3.600000000000,         !- Vertex 2 Y-coordinate {m}
    2.900000000000,          !- Vertex 2 Z-coordinate {m}
    7.275000000000,          !- Vertex 3 X-coordinate {m}
    -3.600000000000,         !- Vertex 3 Y-coordinate {m}
    2.900000000000,          !- Vertex 3 Z-coordinate {m}
    7.275000000000,          !- Vertex 4 X-coordinate {m}
    -3.600000000000,         !- Vertex 4 Y-coordinate {m}
    4.950000000000;          !- Vertex 4 Z-coordinate {m}

FenestrationSurface:Detailed,
    P2_W02,                  !- Name
    Window,                  !- Surface Type
    Exterior Window,         !- Construction Name
    2FA705,                  !- Building Surface Name
    ,                        !- Outside Boundary Condition Object
    ,                        !- View Factor to Ground
    ,                        !- Frame and Divider Name
    ,                        !- Multiplier
    4,                       !- Number of Vertices
    3.700000000000,          !- Vertex 1 X-coordinate {m}
    -6.750000000000,         !- Vertex 1 Y-coordinate {m}
    4.950000000000,          !- Vertex 1 Z-coordinate {m}
    3.700000000000,          !- Vertex 2 X-coordinate {m}
    -6.750000000000,         !- Vertex 2 Y-coordinate {m}
    3.950000000000,          !- Vertex 2 Z-coordinate {m}
    4.900000000000,          !- Vertex 3 X-coordinate {m}
    -6.750000000000,         !- Vertex 3 Y-coordinate {m}
    3.950000000000,          !- Vertex 3 Z-coordinate {m}
    4.900000000000,          !- Vertex 4 X-coordinate {m}
    -6.750000000000,         !- Vertex 4 Y-coordinate {m}
    4.950000000000;          !- Vertex 4 Z-coordinate {m}

FenestrationSurface:Detailed,
    P2_W01,                  !- Name
    Window,                  !- Surface Type
    Exterior Window,         !- Construction Name
    2FA705,                  !- Building Surface Name
    ,                        !- Outside Boundary Condition Object
    ,                        !- View Factor to Ground
    ,                        !- Frame and Divider Name
    ,                        !- Multiplier
    4,                       !- Number of Vertices
    0.950000000000,          !- Vertex 1 X-coordinate {m}
    -6.750000000000,         !- Vertex 1 Y-coordinate {m}
    4.950000000000,          !- Vertex 1 Z-coordinate {m}
    0.950000000000,          !- Vertex 2 X-coordinate {m}
    -6.750000000000,         !- Vertex 2 Y-coordinate {m}
    3.950000000000,          !- Vertex 2 Z-coordinate {m}
    2.150000000000,          !- Vertex 3 X-coordinate {m}
    -6.750000000000,         !- Vertex 3 Y-coordinate {m}
    3.950000000000,          !- Vertex 3 Z-coordinate {m}
    2.150000000000,          !- Vertex 4 X-coordinate {m}
    -6.750000000000,         !- Vertex 4 Y-coordinate {m}
    4.950000000000;          !- Vertex 4 Z-coordinate {m}

FenestrationSurface:Detailed,
    P3_W13 (Door),           !- Name
    Window,                  !- Surface Type
    Exterior Window,         !- Construction Name
    B82FD2,                  !- Building Surface Name
    ,                        !- Outside Boundary Condition Object
    ,                        !- View Factor to Ground
    ,                        !- Frame and Divider Name
    ,                        !- Multiplier
    4,                       !- Number of Vertices
    11.075000000000,         !- Vertex 1 X-coordinate {m}
    3.600000000000,          !- Vertex 1 Y-coordinate {m}
    7.800000000000,          !- Vertex 1 Z-coordinate {m}
    11.075000000000,         !- Vertex 2 X-coordinate {m}
    3.600000000000,          !- Vertex 2 Y-coordinate {m}
    5.750000000000,          !- Vertex 2 Z-coordinate {m}
    9.875000000000,          !- Vertex 3 X-coordinate {m}
    3.600000000000,          !- Vertex 3 Y-coordinate {m}
    5.750000000000,          !- Vertex 3 Z-coordinate {m}
    9.875000000000,          !- Vertex 4 X-coordinate {m}
    3.600000000000,          !- Vertex 4 Y-coordinate {m}
    7.800000000000;          !- Vertex 4 Z-coordinate {m}

FenestrationSurface:Detailed,
    P3_W12,                  !- Name
    Window,                  !- Surface Type
    Exterior Window,         !- Construction Name
    CC7814,                  !- Building Surface Name
    ,                        !- Outside Boundary Condition Object
    ,                        !- View Factor to Ground
    ,                        !- Frame and Divider Name
    ,                        !- Multiplier
    4,                       !- Number of Vertices
    13.450000000000,         !- Vertex 1 X-coordinate {m}
    6.750000000000,          !- Vertex 1 Y-coordinate {m}
    7.800000000000,          !- Vertex 1 Z-coordinate {m}
    13.450000000000,         !- Vertex 2 X-coordinate {m}
    6.750000000000,          !- Vertex 2 Y-coordinate {m}
    6.800000000000,          !- Vertex 2 Z-coordinate {m}
    12.250000000000,         !- Vertex 3 X-coordinate {m}
    6.750000000000,          !- Vertex 3 Y-coordinate {m}
    6.800000000000,          !- Vertex 3 Z-coordinate {m}
    12.250000000000,         !- Vertex 4 X-coordinate {m}
    6.750000000000,          !- Vertex 4 Y-coordinate {m}
    7.800000000000;          !- Vertex 4 Z-coordinate {m}

FenestrationSurface:Detailed,
    P3_W11,                  !- Name
    Window,                  !- Surface Type
    Exterior Window,         !- Construction Name
    CC7814,                  !- Building Surface Name
    ,                        !- Outside Boundary Condition Object
    ,                        !- View Factor to Ground
    ,                        !- Frame and Divider Name
    ,                        !- Multiplier
    4,                       !- Number of Vertices
    16.200000000000,         !- Vertex 1 X-coordinate {m}
    6.750000000000,          !- Vertex 1 Y-coordinate {m}
    7.800000000000,          !- Vertex 1 Z-coordinate {m}
    16.200000000000,         !- Vertex 2 X-coordinate {m}
    6.750000000000,          !- Vertex 2 Y-coordinate {m}
    6.800000000000,          !- Vertex 2 Z-coordinate {m}
    15.000000000000,         !- Vertex 3 X-coordinate {m}
    6.750000000000,          !- Vertex 3 Y-coordinate {m}
    6.800000000000,          !- Vertex 3 Z-coordinate {m}
    15.000000000000,         !- Vertex 4 X-coordinate {m}
    6.750000000000,          !- Vertex 4 Y-coordinate {m}
    7.800000000000;          !- Vertex 4 Z-coordinate {m}

FenestrationSurface:Detailed,
    P3_W03 (Door),           !- Name
    Window,                  !- Surface Type
    Exterior Window,         !- Construction Name
    A64E8B,                  !- Building Surface Name
    ,                        !- Outside Boundary Condition Object
    ,                        !- View Factor to Ground
    ,                        !- Frame and Divider Name
    ,                        !- Multiplier
    4,                       !- Number of Vertices
    6.075000000000,          !- Vertex 1 X-coordinate {m}
    -3.600000000000,         !- Vertex 1 Y-coordinate {m}
    7.800000000000,          !- Vertex 1 Z-coordinate {m}
    6.075000000000,          !- Vertex 2 X-coordinate {m}
    -3.600000000000,         !- Vertex 2 Y-coordinate {m}
    5.750000000000,          !- Vertex 2 Z-coordinate {m}
    7.275000000000,          !- Vertex 3 X-coordinate {m}
    -3.600000000000,         !- Vertex 3 Y-coordinate {m}
    5.750000000000,          !- Vertex 3 Z-coordinate {m}
    7.275000000000,          !- Vertex 4 X-coordinate {m}
    -3.600000000000,         !- Vertex 4 Y-coordinate {m}
    7.800000000000;          !- Vertex 4 Z-coordinate {m}

FenestrationSurface:Detailed,
    P3_W02,                  !- Name
    Window,                  !- Surface Type
    Exterior Window,         !- Construction Name
    109479,                  !- Building Surface Name
    ,                        !- Outside Boundary Condition Object
    ,                        !- View Factor to Ground
    ,                        !- Frame and Divider Name
    ,                        !- Multiplier
    4,                       !- Number of Vertices
    3.700000000000,          !- Vertex 1 X-coordinate {m}
    -6.750000000000,         !- Vertex 1 Y-coordinate {m}
    7.800000000000,          !- Vertex 1 Z-coordinate {m}
    3.700000000000,          !- Vertex 2 X-coordinate {m}
    -6.750000000000,         !- Vertex 2 Y-coordinate {m}
    6.800000000000,          !- Vertex 2 Z-coordinate {m}
    4.900000000000,          !- Vertex 3 X-coordinate {m}
    -6.750000000000,         !- Vertex 3 Y-coordinate {m}
    6.800000000000,          !- Vertex 3 Z-coordinate {m}
    4.900000000000,          !- Vertex 4 X-coordinate {m}
    -6.750000000000,         !- Vertex 4 Y-coordinate {m}
    7.800000000000;          !- Vertex 4 Z-coordinate {m}

FenestrationSurface:Detailed,
    P3_W01,                  !- Name
    Window,                  !- Surface Type
    Exterior Window,         !- Construction Name
    109479,                  !- Building Surface Name
    ,                        !- Outside Boundary Condition Object
    ,                        !- View Factor to Ground
    ,                        !- Frame and Divider Name
    ,                        !- Multiplier
    4,                       !- Number of Vertices
    0.950000000000,          !- Vertex 1 X-coordinate {m}
    -6.750000000000,         !- Vertex 1 Y-coordinate {m}
    7.800000000000,          !- Vertex 1 Z-coordinate {m}
    0.950000000000,          !- Vertex 2 X-coordinate {m}
    -6.750000000000,         !- Vertex 2 Y-coordinate {m}
    6.800000000000,          !- Vertex 2 Z-coordinate {m}
    2.150000000000,          !- Vertex 3 X-coordinate {m}
    -6.750000000000,         !- Vertex 3 Y-coordinate {m}
    6.800000000000,          !- Vertex 3 Z-coordinate {m}
    2.150000000000,          !- Vertex 4 X-coordinate {m}
    -6.750000000000,         !- Vertex 4 Y-coordinate {m}
    7.800000000000;          !- Vertex 4 Z-coordinate {m}

FenestrationSurface:Detailed,
    P3_W18 (Door),           !- Name
    Window,                  !- Surface Type
    Exterior Window,         !- Construction Name
    C3ADA8,                  !- Building Surface Name
    ,                        !- Outside Boundary Condition Object
    ,                        !- View Factor to Ground
    ,                        !- Frame and Divider Name
    ,                        !- Multiplier
    4,                       !- Number of Vertices
    9.925000000000,          !- Vertex 1 X-coordinate {m}
    -3.600000000000,         !- Vertex 1 Y-coordinate {m}
    7.800000000000,          !- Vertex 1 Z-coordinate {m}
    9.925000000000,          !- Vertex 2 X-coordinate {m}
    -3.600000000000,         !- Vertex 2 Y-coordinate {m}
    5.750000000000,          !- Vertex 2 Z-coordinate {m}
    11.125000000000,         !- Vertex 3 X-coordinate {m}
    -3.600000000000,         !- Vertex 3 Y-coordinate {m}
    5.750000000000,          !- Vertex 3 Z-coordinate {m}
    11.125000000000,         !- Vertex 4 X-coordinate {m}
    -3.600000000000,         !- Vertex 4 Y-coordinate {m}
    7.800000000000;          !- Vertex 4 Z-coordinate {m}

FenestrationSurface:Detailed,
    P3_W17,                  !- Name
    Window,                  !- Surface Type
    Exterior Window,         !- Construction Name
    E9FAEA,                  !- Building Surface Name
    ,                        !- Outside Boundary Condition Object
    ,                        !- View Factor to Ground
    ,                        !- Frame and Divider Name
    ,                        !- Multiplier
    4,                       !- Number of Vertices
    12.250000000000,         !- Vertex 1 X-coordinate {m}
    -6.750000000000,         !- Vertex 1 Y-coordinate {m}
    7.800000000000,          !- Vertex 1 Z-coordinate {m}
    12.250000000000,         !- Vertex 2 X-coordinate {m}
    -6.750000000000,         !- Vertex 2 Y-coordinate {m}
    6.800000000000,          !- Vertex 2 Z-coordinate {m}
    13.450000000000,         !- Vertex 3 X-coordinate {m}
    -6.750000000000,         !- Vertex 3 Y-coordinate {m}
    6.800000000000,          !- Vertex 3 Z-coordinate {m}
    13.450000000000,         !- Vertex 4 X-coordinate {m}
    -6.750000000000,         !- Vertex 4 Y-coordinate {m}
    7.800000000000;          !- Vertex 4 Z-coordinate {m}

FenestrationSurface:Detailed,
    P3_W16,                  !- Name
    Window,                  !- Surface Type
    Exterior Window,         !- Construction Name
    E9FAEA,                  !- Building Surface Name
    ,                        !- Outside Boundary Condition Object
    ,                        !- View Factor to Ground
    ,                        !- Frame and Divider Name
    ,                        !- Multiplier
    4,                       !- Number of Vertices
    15.000000000000,         !- Vertex 1 X-coordinate {m}
    -6.750000000000,         !- Vertex 1 Y-coordinate {m}
    7.800000000000,          !- Vertex 1 Z-coordinate {m}
    15.000000000000,         !- Vertex 2 X-coordinate {m}
    -6.750000000000,         !- Vertex 2 Y-coordinate {m}
    6.800000000000,          !- Vertex 2 Z-coordinate {m}
    16.200000000000,         !- Vertex 3 X-coordinate {m}
    -6.750000000000,         !- Vertex 3 Y-coordinate {m}
    6.800000000000,          !- Vertex 3 Z-coordinate {m}
    16.200000000000,         !- Vertex 4 X-coordinate {m}
    -6.750000000000,         !- Vertex 4 Y-coordinate {m}
    7.800000000000;          !- Vertex 4 Z-coordinate {m}

FenestrationSurface:Detailed,
    P3_W08 (Door),           !- Name
    Window,                  !- Surface Type
    Exterior Window,         !- Construction Name
    5155E2,                  !- Building Surface Name
    ,                        !- Outside Boundary Condition Object
    ,                        !- View Factor to Ground
    ,                        !- Frame and Divider Name
    ,                        !- Multiplier
    4,                       !- Number of Vertices
    7.225000000000,          !- Vertex 1 X-coordinate {m}
    3.600000000000,          !- Vertex 1 Y-coordinate {m}
    7.800000000000,          !- Vertex 1 Z-coordinate {m}
    7.225000000000,          !- Vertex 2 X-coordinate {m}
    3.600000000000,          !- Vertex 2 Y-coordinate {m}
    5.750000000000,          !- Vertex 2 Z-coordinate {m}
    6.025000000000,          !- Vertex 3 X-coordinate {m}
    3.600000000000,          !- Vertex 3 Y-coordinate {m}
    5.750000000000,          !- Vertex 3 Z-coordinate {m}
    6.025000000000,          !- Vertex 4 X-coordinate {m}
    3.600000000000,          !- Vertex 4 Y-coordinate {m}
    7.800000000000;          !- Vertex 4 Z-coordinate {m}

FenestrationSurface:Detailed,
    P3_W07,                  !- Name
    Window,                  !- Surface Type
    Exterior Window,         !- Construction Name
    3E1F8C,                  !- Building Surface Name
    ,                        !- Outside Boundary Condition Object
    ,                        !- View Factor to Ground
    ,                        !- Frame and Divider Name
    ,                        !- Multiplier
    4,                       !- Number of Vertices
    4.900000000000,          !- Vertex 1 X-coordinate {m}
    6.750000000000,          !- Vertex 1 Y-coordinate {m}
    7.800000000000,          !- Vertex 1 Z-coordinate {m}
    4.900000000000,          !- Vertex 2 X-coordinate {m}
    6.750000000000,          !- Vertex 2 Y-coordinate {m}
    6.800000000000,          !- Vertex 2 Z-coordinate {m}
    3.700000000000,          !- Vertex 3 X-coordinate {m}
    6.750000000000,          !- Vertex 3 Y-coordinate {m}
    6.800000000000,          !- Vertex 3 Z-coordinate {m}
    3.700000000000,          !- Vertex 4 X-coordinate {m}
    6.750000000000,          !- Vertex 4 Y-coordinate {m}
    7.800000000000;          !- Vertex 4 Z-coordinate {m}

FenestrationSurface:Detailed,
    P3_W06,                  !- Name
    Window,                  !- Surface Type
    Exterior Window,         !- Construction Name
    3E1F8C,                  !- Building Surface Name
    ,                        !- Outside Boundary Condition Object
    ,                        !- View Factor to Ground
    ,                        !- Frame and Divider Name
    ,                        !- Multiplier
    4,                       !- Number of Vertices
    2.150000000000,          !- Vertex 1 X-coordinate {m}
    6.750000000000,          !- Vertex 1 Y-coordinate {m}
    7.800000000000,          !- Vertex 1 Z-coordinate {m}
    2.150000000000,          !- Vertex 2 X-coordinate {m}
    6.750000000000,          !- Vertex 2 Y-coordinate {m}
    6.800000000000,          !- Vertex 2 Z-coordinate {m}
    0.950000000000,          !- Vertex 3 X-coordinate {m}
    6.750000000000,          !- Vertex 3 Y-coordinate {m}
    6.800000000000,          !- Vertex 3 Z-coordinate {m}
    0.950000000000,          !- Vertex 4 X-coordinate {m}
    6.750000000000,          !- Vertex 4 Y-coordinate {m}
    7.800000000000;          !- Vertex 4 Z-coordinate {m}

FenestrationSurface:Detailed,
    P4_W08 (Door),           !- Name
    Window,                  !- Surface Type
    Exterior Window,         !- Construction Name
    43BC6F,                  !- Building Surface Name
    ,                        !- Outside Boundary Condition Object
    ,                        !- View Factor to Ground
    ,                        !- Frame and Divider Name
    ,                        !- Multiplier
    4,                       !- Number of Vertices
    7.225000000000,          !- Vertex 1 X-coordinate {m}
    3.600000000000,          !- Vertex 1 Y-coordinate {m}
    10.650000000000,         !- Vertex 1 Z-coordinate {m}
    7.225000000000,          !- Vertex 2 X-coordinate {m}
    3.600000000000,          !- Vertex 2 Y-coordinate {m}
    8.600000000000,          !- Vertex 2 Z-coordinate {m}
    6.025000000000,          !- Vertex 3 X-coordinate {m}
    3.600000000000,          !- Vertex 3 Y-coordinate {m}
    8.600000000000,          !- Vertex 3 Z-coordinate {m}
    6.025000000000,          !- Vertex 4 X-coordinate {m}
    3.600000000000,          !- Vertex 4 Y-coordinate {m}
    10.650000000000;         !- Vertex 4 Z-coordinate {m}

FenestrationSurface:Detailed,
    P4_W07,                  !- Name
    Window,                  !- Surface Type
    Exterior Window,         !- Construction Name
    D99C78,                  !- Building Surface Name
    ,                        !- Outside Boundary Condition Object
    ,                        !- View Factor to Ground
    ,                        !- Frame and Divider Name
    ,                        !- Multiplier
    4,                       !- Number of Vertices
    4.900000000000,          !- Vertex 1 X-coordinate {m}
    6.750000000000,          !- Vertex 1 Y-coordinate {m}
    10.650000000000,         !- Vertex 1 Z-coordinate {m}
    4.900000000000,          !- Vertex 2 X-coordinate {m}
    6.750000000000,          !- Vertex 2 Y-coordinate {m}
    9.650000000000,          !- Vertex 2 Z-coordinate {m}
    3.700000000000,          !- Vertex 3 X-coordinate {m}
    6.750000000000,          !- Vertex 3 Y-coordinate {m}
    9.650000000000,          !- Vertex 3 Z-coordinate {m}
    3.700000000000,          !- Vertex 4 X-coordinate {m}
    6.750000000000,          !- Vertex 4 Y-coordinate {m}
    10.650000000000;         !- Vertex 4 Z-coordinate {m}

FenestrationSurface:Detailed,
    P4_W06,                  !- Name
    Window,                  !- Surface Type
    Exterior Window,         !- Construction Name
    D99C78,                  !- Building Surface Name
    ,                        !- Outside Boundary Condition Object
    ,                        !- View Factor to Ground
    ,                        !- Frame and Divider Name
    ,                        !- Multiplier
    4,                       !- Number of Vertices
    2.150000000000,          !- Vertex 1 X-coordinate {m}
    6.750000000000,          !- Vertex 1 Y-coordinate {m}
    10.650000000000,         !- Vertex 1 Z-coordinate {m}
    2.150000000000,          !- Vertex 2 X-coordinate {m}
    6.750000000000,          !- Vertex 2 Y-coordinate {m}
    9.650000000000,          !- Vertex 2 Z-coordinate {m}
    0.950000000000,          !- Vertex 3 X-coordinate {m}
    6.750000000000,          !- Vertex 3 Y-coordinate {m}
    9.650000000000,          !- Vertex 3 Z-coordinate {m}
    0.950000000000,          !- Vertex 4 X-coordinate {m}
    6.750000000000,          !- Vertex 4 Y-coordinate {m}
    10.650000000000;         !- Vertex 4 Z-coordinate {m}

FenestrationSurface:Detailed,
    P4_W13 (Door),           !- Name
    Window,                  !- Surface Type
    Exterior Window,         !- Construction Name
    E2DFFC,                  !- Building Surface Name
    ,                        !- Outside Boundary Condition Object
    ,                        !- View Factor to Ground
    ,                        !- Frame and Divider Name
    ,                        !- Multiplier
    4,                       !- Number of Vertices
    11.075000000000,         !- Vertex 1 X-coordinate {m}
    3.600000000000,          !- Vertex 1 Y-coordinate {m}
    10.650000000000,         !- Vertex 1 Z-coordinate {m}
    11.075000000000,         !- Vertex 2 X-coordinate {m}
    3.600000000000,          !- Vertex 2 Y-coordinate {m}
    8.600000000000,          !- Vertex 2 Z-coordinate {m}
    9.875000000000,          !- Vertex 3 X-coordinate {m}
    3.600000000000,          !- Vertex 3 Y-coordinate {m}
    8.600000000000,          !- Vertex 3 Z-coordinate {m}
    9.875000000000,          !- Vertex 4 X-coordinate {m}
    3.600000000000,          !- Vertex 4 Y-coordinate {m}
    10.650000000000;         !- Vertex 4 Z-coordinate {m}

FenestrationSurface:Detailed,
    P4_W12,                  !- Name
    Window,                  !- Surface Type
    Exterior Window,         !- Construction Name
    656E9E,                  !- Building Surface Name
    ,                        !- Outside Boundary Condition Object
    ,                        !- View Factor to Ground
    ,                        !- Frame and Divider Name
    ,                        !- Multiplier
    4,                       !- Number of Vertices
    13.450000000000,         !- Vertex 1 X-coordinate {m}
    6.750000000000,          !- Vertex 1 Y-coordinate {m}
    10.650000000000,         !- Vertex 1 Z-coordinate {m}
    13.450000000000,         !- Vertex 2 X-coordinate {m}
    6.750000000000,          !- Vertex 2 Y-coordinate {m}
    9.650000000000,          !- Vertex 2 Z-coordinate {m}
    12.250000000000,         !- Vertex 3 X-coordinate {m}
    6.750000000000,          !- Vertex 3 Y-coordinate {m}
    9.650000000000,          !- Vertex 3 Z-coordinate {m}
    12.250000000000,         !- Vertex 4 X-coordinate {m}
    6.750000000000,          !- Vertex 4 Y-coordinate {m}
    10.650000000000;         !- Vertex 4 Z-coordinate {m}

FenestrationSurface:Detailed,
    P4_W11,                  !- Name
    Window,                  !- Surface Type
    Exterior Window,         !- Construction Name
    656E9E,                  !- Building Surface Name
    ,                        !- Outside Boundary Condition Object
    ,                        !- View Factor to Ground
    ,                        !- Frame and Divider Name
    ,                        !- Multiplier
    4,                       !- Number of Vertices
    16.200000000000,         !- Vertex 1 X-coordinate {m}
    6.750000000000,          !- Vertex 1 Y-coordinate {m}
    10.650000000000,         !- Vertex 1 Z-coordinate {m}
    16.200000000000,         !- Vertex 2 X-coordinate {m}
    6.750000000000,          !- Vertex 2 Y-coordinate {m}
    9.650000000000,          !- Vertex 2 Z-coordinate {m}
    15.000000000000,         !- Vertex 3 X-coordinate {m}
    6.750000000000,          !- Vertex 3 Y-coordinate {m}
    9.650000000000,          !- Vertex 3 Z-coordinate {m}
    15.000000000000,         !- Vertex 4 X-coordinate {m}
    6.750000000000,          !- Vertex 4 Y-coordinate {m}
    10.650000000000;         !- Vertex 4 Z-coordinate {m}

FenestrationSurface:Detailed,
    P4_W03 (Door),           !- Name
    Window,                  !- Surface Type
    Exterior Window,         !- Construction Name
    DAE079,                  !- Building Surface Name
    ,                        !- Outside Boundary Condition Object
    ,                        !- View Factor to Ground
    ,                        !- Frame and Divider Name
    ,                        !- Multiplier
    4,                       !- Number of Vertices
    6.075000000000,          !- Vertex 1 X-coordinate {m}
    -3.600000000000,         !- Vertex 1 Y-coordinate {m}
    10.650000000000,         !- Vertex 1 Z-coordinate {m}
    6.075000000000,          !- Vertex 2 X-coordinate {m}
    -3.600000000000,         !- Vertex 2 Y-coordinate {m}
    8.600000000000,          !- Vertex 2 Z-coordinate {m}
    7.275000000000,          !- Vertex 3 X-coordinate {m}
    -3.600000000000,         !- Vertex 3 Y-coordinate {m}
    8.600000000000,          !- Vertex 3 Z-coordinate {m}
    7.275000000000,          !- Vertex 4 X-coordinate {m}
    -3.600000000000,         !- Vertex 4 Y-coordinate {m}
    10.650000000000;         !- Vertex 4 Z-coordinate {m}

FenestrationSurface:Detailed,
    P4_W02,                  !- Name
    Window,                  !- Surface Type
    Exterior Window,         !- Construction Name
    9F346B,                  !- Building Surface Name
    ,                        !- Outside Boundary Condition Object
    ,                        !- View Factor to Ground
    ,                        !- Frame and Divider Name
    ,                        !- Multiplier
    4,                       !- Number of Vertices
    3.700000000000,          !- Vertex 1 X-coordinate {m}
    -6.750000000000,         !- Vertex 1 Y-coordinate {m}
    10.650000000000,         !- Vertex 1 Z-coordinate {m}
    3.700000000000,          !- Vertex 2 X-coordinate {m}
    -6.750000000000,         !- Vertex 2 Y-coordinate {m}
    9.650000000000,          !- Vertex 2 Z-coordinate {m}
    4.900000000000,          !- Vertex 3 X-coordinate {m}
    -6.750000000000,         !- Vertex 3 Y-coordinate {m}
    9.650000000000,          !- Vertex 3 Z-coordinate {m}
    4.900000000000,          !- Vertex 4 X-coordinate {m}
    -6.750000000000,         !- Vertex 4 Y-coordinate {m}
    10.650000000000;         !- Vertex 4 Z-coordinate {m}

FenestrationSurface:Detailed,
    P4_W01,                  !- Name
    Window,                  !- Surface Type
    Exterior Window,         !- Construction Name
    9F346B,                  !- Building Surface Name
    ,                        !- Outside Boundary Condition Object
    ,                        !- View Factor to Ground
    ,                        !- Frame and Divider Name
    ,                        !- Multiplier
    4,                       !- Number of Vertices
    0.950000000000,          !- Vertex 1 X-coordinate {m}
    -6.750000000000,         !- Vertex 1 Y-coordinate {m}
    10.650000000000,         !- Vertex 1 Z-coordinate {m}
    0.950000000000,          !- Vertex 2 X-coordinate {m}
    -6.750000000000,         !- Vertex 2 Y-coordinate {m}
    9.650000000000,          !- Vertex 2 Z-coordinate {m}
    2.150000000000,          !- Vertex 3 X-coordinate {m}
    -6.750000000000,         !- Vertex 3 Y-coordinate {m}
    9.650000000000,          !- Vertex 3 Z-coordinate {m}
    2.150000000000,          !- Vertex 4 X-coordinate {m}
    -6.750000000000,         !- Vertex 4 Y-coordinate {m}
    10.650000000000;         !- Vertex 4 Z-coordinate {m}

FenestrationSurface:Detailed,
    P4_W18 (Door),           !- Name
    Window,                  !- Surface Type
    Exterior Window,         !- Construction Name
    DAE4CD,                  !- Building Surface Name
    ,                        !- Outside Boundary Condition Object
    ,                        !- View Factor to Ground
    ,                        !- Frame and Divider Name
    ,                        !- Multiplier
    4,                       !- Number of Vertices
    9.925000000000,          !- Vertex 1 X-coordinate {m}
    -3.600000000000,         !- Vertex 1 Y-coordinate {m}
    10.650000000000,         !- Vertex 1 Z-coordinate {m}
    9.925000000000,          !- Vertex 2 X-coordinate {m}
    -3.600000000000,         !- Vertex 2 Y-coordinate {m}
    8.600000000000,          !- Vertex 2 Z-coordinate {m}
    11.125000000000,         !- Vertex 3 X-coordinate {m}
    -3.600000000000,         !- Vertex 3 Y-coordinate {m}
    8.600000000000,          !- Vertex 3 Z-coordinate {m}
    11.125000000000,         !- Vertex 4 X-coordinate {m}
    -3.600000000000,         !- Vertex 4 Y-coordinate {m}
    10.650000000000;         !- Vertex 4 Z-coordinate {m}

FenestrationSurface:Detailed,
    P4_W17,                  !- Name
    Window,                  !- Surface Type
    Exterior Window,         !- Construction Name
    DC3CEC,                  !- Building Surface Name
    ,                        !- Outside Boundary Condition Object
    ,                        !- View Factor to Ground
    ,                        !- Frame and Divider Name
    ,                        !- Multiplier
    4,                       !- Number of Vertices
    12.250000000000,         !- Vertex 1 X-coordinate {m}
    -6.750000000000,         !- Vertex 1 Y-coordinate {m}
    10.650000000000,         !- Vertex 1 Z-coordinate {m}
    12.250000000000,         !- Vertex 2 X-coordinate {m}
    -6.750000000000,         !- Vertex 2 Y-coordinate {m}
    9.650000000000,          !- Vertex 2 Z-coordinate {m}
    13.450000000000,         !- Vertex 3 X-coordinate {m}
    -6.750000000000,         !- Vertex 3 Y-coordinate {m}
    9.650000000000,          !- Vertex 3 Z-coordinate {m}
    13.450000000000,         !- Vertex 4 X-coordinate {m}
    -6.750000000000,         !- Vertex 4 Y-coordinate {m}
    10.650000000000;         !- Vertex 4 Z-coordinate {m}

FenestrationSurface:Detailed,
    P4_W16,                  !- Name
    Window,                  !- Surface Type
    Exterior Window,         !- Construction Name
    DC3CEC,                  !- Building Surface Name
    ,                        !- Outside Boundary Condition Object
    ,                        !- View Factor to Ground
    ,                        !- Frame and Divider Name
    ,                        !- Multiplier
    4,                       !- Number of Vertices
    15.000000000000,         !- Vertex 1 X-coordinate {m}
    -6.750000000000,         !- Vertex 1 Y-coordinate {m}
    10.650000000000,         !- Vertex 1 Z-coordinate {m}
    15.000000000000,         !- Vertex 2 X-coordinate {m}
    -6.750000000000,         !- Vertex 2 Y-coordinate {m}
    9.650000000000,          !- Vertex 2 Z-coordinate {m}
    16.200000000000,         !- Vertex 3 X-coordinate {m}
    -6.750000000000,         !- Vertex 3 Y-coordinate {m}
    9.650000000000,          !- Vertex 3 Z-coordinate {m}
    16.200000000000,         !- Vertex 4 X-coordinate {m}
    -6.750000000000,         !- Vertex 4 Y-coordinate {m}
    10.650000000000;         !- Vertex 4 Z-coordinate {m}

FenestrationSurface:Detailed,
    P5_W13 (Door),           !- Name
    Window,                  !- Surface Type
    Exterior Window,         !- Construction Name
    E23F1E,                  !- Building Surface Name
    ,                        !- Outside Boundary Condition Object
    ,                        !- View Factor to Ground
    ,                        !- Frame and Divider Name
    ,                        !- Multiplier
    4,                       !- Number of Vertices
    11.075000000000,         !- Vertex 1 X-coordinate {m}
    3.600000000000,          !- Vertex 1 Y-coordinate {m}
    13.500000000000,         !- Vertex 1 Z-coordinate {m}
    11.075000000000,         !- Vertex 2 X-coordinate {m}
    3.600000000000,          !- Vertex 2 Y-coordinate {m}
    11.450000000000,         !- Vertex 2 Z-coordinate {m}
    9.875000000000,          !- Vertex 3 X-coordinate {m}
    3.600000000000,          !- Vertex 3 Y-coordinate {m}
    11.450000000000,         !- Vertex 3 Z-coordinate {m}
    9.875000000000,          !- Vertex 4 X-coordinate {m}
    3.600000000000,          !- Vertex 4 Y-coordinate {m}
    13.500000000000;         !- Vertex 4 Z-coordinate {m}

FenestrationSurface:Detailed,
    P5_W12,                  !- Name
    Window,                  !- Surface Type
    Exterior Window,         !- Construction Name
    CEB556,                  !- Building Surface Name
    ,                        !- Outside Boundary Condition Object
    ,                        !- View Factor to Ground
    ,                        !- Frame and Divider Name
    ,                        !- Multiplier
    4,                       !- Number of Vertices
    13.450000000000,         !- Vertex 1 X-coordinate {m}
    6.750000000000,          !- Vertex 1 Y-coordinate {m}
    13.500000000000,         !- Vertex 1 Z-coordinate {m}
    13.450000000000,         !- Vertex 2 X-coordinate {m}
    6.750000000000,          !- Vertex 2 Y-coordinate {m}
    12.500000000000,         !- Vertex 2 Z-coordinate {m}
    12.250000000000,         !- Vertex 3 X-coordinate {m}
    6.750000000000,          !- Vertex 3 Y-coordinate {m}
    12.500000000000,         !- Vertex 3 Z-coordinate {m}
    12.250000000000,         !- Vertex 4 X-coordinate {m}
    6.750000000000,          !- Vertex 4 Y-coordinate {m}
    13.500000000000;         !- Vertex 4 Z-coordinate {m}

FenestrationSurface:Detailed,
    P5_W11,                  !- Name
    Window,                  !- Surface Type
    Exterior Window,         !- Construction Name
    CEB556,                  !- Building Surface Name
    ,                        !- Outside Boundary Condition Object
    ,                        !- View Factor to Ground
    ,                        !- Frame and Divider Name
    ,                        !- Multiplier
    4,                       !- Number of Vertices
    16.200000000000,         !- Vertex 1 X-coordinate {m}
    6.750000000000,          !- Vertex 1 Y-coordinate {m}
    13.500000000000,         !- Vertex 1 Z-coordinate {m}
    16.200000000000,         !- Vertex 2 X-coordinate {m}
    6.750000000000,          !- Vertex 2 Y-coordinate {m}
    12.500000000000,         !- Vertex 2 Z-coordinate {m}
    15.000000000000,         !- Vertex 3 X-coordinate {m}
    6.750000000000,          !- Vertex 3 Y-coordinate {m}
    12.500000000000,         !- Vertex 3 Z-coordinate {m}
    15.000000000000,         !- Vertex 4 X-coordinate {m}
    6.750000000000,          !- Vertex 4 Y-coordinate {m}
    13.500000000000;         !- Vertex 4 Z-coordinate {m}

FenestrationSurface:Detailed,
    P5_W18 (Door),           !- Name
    Window,                  !- Surface Type
    Exterior Window,         !- Construction Name
    A9E92B,                  !- Building Surface Name
    ,                        !- Outside Boundary Condition Object
    ,                        !- View Factor to Ground
    ,                        !- Frame and Divider Name
    ,                        !- Multiplier
    4,                       !- Number of Vertices
    9.925000000000,          !- Vertex 1 X-coordinate {m}
    -3.600000000000,         !- Vertex 1 Y-coordinate {m}
    13.500000000000,         !- Vertex 1 Z-coordinate {m}
    9.925000000000,          !- Vertex 2 X-coordinate {m}
    -3.600000000000,         !- Vertex 2 Y-coordinate {m}
    11.450000000000,         !- Vertex 2 Z-coordinate {m}
    11.125000000000,         !- Vertex 3 X-coordinate {m}
    -3.600000000000,         !- Vertex 3 Y-coordinate {m}
    11.450000000000,         !- Vertex 3 Z-coordinate {m}
    11.125000000000,         !- Vertex 4 X-coordinate {m}
    -3.600000000000,         !- Vertex 4 Y-coordinate {m}
    13.500000000000;         !- Vertex 4 Z-coordinate {m}

FenestrationSurface:Detailed,
    P5_W17,                  !- Name
    Window,                  !- Surface Type
    Exterior Window,         !- Construction Name
    9FD108,                  !- Building Surface Name
    ,                        !- Outside Boundary Condition Object
    ,                        !- View Factor to Ground
    ,                        !- Frame and Divider Name
    ,                        !- Multiplier
    4,                       !- Number of Vertices
    12.250000000000,         !- Vertex 1 X-coordinate {m}
    -6.750000000000,         !- Vertex 1 Y-coordinate {m}
    13.500000000000,         !- Vertex 1 Z-coordinate {m}
    12.250000000000,         !- Vertex 2 X-coordinate {m}
    -6.750000000000,         !- Vertex 2 Y-coordinate {m}
    12.500000000000,         !- Vertex 2 Z-coordinate {m}
    13.450000000000,         !- Vertex 3 X-coordinate {m}
    -6.750000000000,         !- Vertex 3 Y-coordinate {m}
    12.500000000000,         !- Vertex 3 Z-coordinate {m}
    13.450000000000,         !- Vertex 4 X-coordinate {m}
    -6.750000000000,         !- Vertex 4 Y-coordinate {m}
    13.500000000000;         !- Vertex 4 Z-coordinate {m}

FenestrationSurface:Detailed,
    P5_W16,                  !- Name
    Window,                  !- Surface Type
    Exterior Window,         !- Construction Name
    9FD108,                  !- Building Surface Name
    ,                        !- Outside Boundary Condition Object
    ,                        !- View Factor to Ground
    ,                        !- Frame and Divider Name
    ,                        !- Multiplier
    4,                       !- Number of Vertices
    15.000000000000,         !- Vertex 1 X-coordinate {m}
    -6.750000000000,         !- Vertex 1 Y-coordinate {m}
    13.500000000000,         !- Vertex 1 Z-coordinate {m}
    15.000000000000,         !- Vertex 2 X-coordinate {m}
    -6.750000000000,         !- Vertex 2 Y-coordinate {m}
    12.500000000000,         !- Vertex 2 Z-coordinate {m}
    16.200000000000,         !- Vertex 3 X-coordinate {m}
    -6.750000000000,         !- Vertex 3 Y-coordinate {m}
    12.500000000000,         !- Vertex 3 Z-coordinate {m}
    16.200000000000,         !- Vertex 4 X-coordinate {m}
    -6.750000000000,         !- Vertex 4 Y-coordinate {m}
    13.500000000000;         !- Vertex 4 Z-coordinate {m}

FenestrationSurface:Detailed,
    P5_W08 (Door),           !- Name
    Window,                  !- Surface Type
    Exterior Window,         !- Construction Name
    6F2D86,                  !- Building Surface Name
    ,                        !- Outside Boundary Condition Object
    ,                        !- View Factor to Ground
    ,                        !- Frame and Divider Name
    ,                        !- Multiplier
    4,                       !- Number of Vertices
    7.225000000000,          !- Vertex 1 X-coordinate {m}
    3.600000000000,          !- Vertex 1 Y-coordinate {m}
    13.500000000000,         !- Vertex 1 Z-coordinate {m}
    7.225000000000,          !- Vertex 2 X-coordinate {m}
    3.600000000000,          !- Vertex 2 Y-coordinate {m}
    11.450000000000,         !- Vertex 2 Z-coordinate {m}
    6.025000000000,          !- Vertex 3 X-coordinate {m}
    3.600000000000,          !- Vertex 3 Y-coordinate {m}
    11.450000000000,         !- Vertex 3 Z-coordinate {m}
    6.025000000000,          !- Vertex 4 X-coordinate {m}
    3.600000000000,          !- Vertex 4 Y-coordinate {m}
    13.500000000000;         !- Vertex 4 Z-coordinate {m}

FenestrationSurface:Detailed,
    P5_W07,                  !- Name
    Window,                  !- Surface Type
    Exterior Window,         !- Construction Name
    27112E,                  !- Building Surface Name
    ,                        !- Outside Boundary Condition Object
    ,                        !- View Factor to Ground
    ,                        !- Frame and Divider Name
    ,                        !- Multiplier
    4,                       !- Number of Vertices
    4.900000000000,          !- Vertex 1 X-coordinate {m}
    6.750000000000,          !- Vertex 1 Y-coordinate {m}
    13.500000000000,         !- Vertex 1 Z-coordinate {m}
    4.900000000000,          !- Vertex 2 X-coordinate {m}
    6.750000000000,          !- Vertex 2 Y-coordinate {m}
    12.500000000000,         !- Vertex 2 Z-coordinate {m}
    3.700000000000,          !- Vertex 3 X-coordinate {m}
    6.750000000000,          !- Vertex 3 Y-coordinate {m}
    12.500000000000,         !- Vertex 3 Z-coordinate {m}
    3.700000000000,          !- Vertex 4 X-coordinate {m}
    6.750000000000,          !- Vertex 4 Y-coordinate {m}
    13.500000000000;         !- Vertex 4 Z-coordinate {m}

FenestrationSurface:Detailed,
    P5_W06,                  !- Name
    Window,                  !- Surface Type
    Exterior Window,         !- Construction Name
    27112E,                  !- Building Surface Name
    ,                        !- Outside Boundary Condition Object
    ,                        !- View Factor to Ground
    ,                        !- Frame and Divider Name
    ,                        !- Multiplier
    4,                       !- Number of Vertices
    2.150000000000,          !- Vertex 1 X-coordinate {m}
    6.750000000000,          !- Vertex 1 Y-coordinate {m}
    13.500000000000,         !- Vertex 1 Z-coordinate {m}
    2.150000000000,          !- Vertex 2 X-coordinate {m}
    6.750000000000,          !- Vertex 2 Y-coordinate {m}
    12.500000000000,         !- Vertex 2 Z-coordinate {m}
    0.950000000000,          !- Vertex 3 X-coordinate {m}
    6.750000000000,          !- Vertex 3 Y-coordinate {m}
    12.500000000000,         !- Vertex 3 Z-coordinate {m}
    0.950000000000,          !- Vertex 4 X-coordinate {m}
    6.750000000000,          !- Vertex 4 Y-coordinate {m}
    13.500000000000;         !- Vertex 4 Z-coordinate {m}

FenestrationSurface:Detailed,
    P5_W03 (Door),           !- Name
    Window,                  !- Surface Type
    Exterior Window,         !- Construction Name
    4BEDF4,                  !- Building Surface Name
    ,                        !- Outside Boundary Condition Object
    ,                        !- View Factor to Ground
    ,                        !- Frame and Divider Name
    ,                        !- Multiplier
    4,                       !- Number of Vertices
    6.075000000000,          !- Vertex 1 X-coordinate {m}
    -3.600000000000,         !- Vertex 1 Y-coordinate {m}
    13.500000000000,         !- Vertex 1 Z-coordinate {m}
    6.075000000000,          !- Vertex 2 X-coordinate {m}
    -3.600000000000,         !- Vertex 2 Y-coordinate {m}
    11.450000000000,         !- Vertex 2 Z-coordinate {m}
    7.275000000000,          !- Vertex 3 X-coordinate {m}
    -3.600000000000,         !- Vertex 3 Y-coordinate {m}
    11.450000000000,         !- Vertex 3 Z-coordinate {m}
    7.275000000000,          !- Vertex 4 X-coordinate {m}
    -3.600000000000,         !- Vertex 4 Y-coordinate {m}
    13.500000000000;         !- Vertex 4 Z-coordinate {m}

FenestrationSurface:Detailed,
    P5_W02,                  !- Name
    Window,                  !- Surface Type
    Exterior Window,         !- Construction Name
    ADF733,                  !- Building Surface Name
    ,                        !- Outside Boundary Condition Object
    ,                        !- View Factor to Ground
    ,                        !- Frame and Divider Name
    ,                        !- Multiplier
    4,                       !- Number of Vertices
    3.700000000000,          !- Vertex 1 X-coordinate {m}
    -6.750000000000,         !- Vertex 1 Y-coordinate {m}
    13.500000000000,         !- Vertex 1 Z-coordinate {m}
    3.700000000000,          !- Vertex 2 X-coordinate {m}
    -6.750000000000,         !- Vertex 2 Y-coordinate {m}
    12.500000000000,         !- Vertex 2 Z-coordinate {m}
    4.900000000000,          !- Vertex 3 X-coordinate {m}
    -6.750000000000,         !- Vertex 3 Y-coordinate {m}
    12.500000000000,         !- Vertex 3 Z-coordinate {m}
    4.900000000000,          !- Vertex 4 X-coordinate {m}
    -6.750000000000,         !- Vertex 4 Y-coordinate {m}
    13.500000000000;         !- Vertex 4 Z-coordinate {m}

FenestrationSurface:Detailed,
    P5_W01,                  !- Name
    Window,                  !- Surface Type
    Exterior Window,         !- Construction Name
    ADF733,                  !- Building Surface Name
    ,                        !- Outside Boundary Condition Object
    ,                        !- View Factor to Ground
    ,                        !- Frame and Divider Name
    ,                        !- Multiplier
    4,                       !- Number of Vertices
    0.950000000000,          !- Vertex 1 X-coordinate {m}
    -6.750000000000,         !- Vertex 1 Y-coordinate {m}
    13.500000000000,         !- Vertex 1 Z-coordinate {m}
    0.950000000000,          !- Vertex 2 X-coordinate {m}
    -6.750000000000,         !- Vertex 2 Y-coordinate {m}
    12.500000000000,         !- Vertex 2 Z-coordinate {m}
    2.150000000000,          !- Vertex 3 X-coordinate {m}
    -6.750000000000,         !- Vertex 3 Y-coordinate {m}
    12.500000000000,         !- Vertex 3 Z-coordinate {m}
    2.150000000000,          !- Vertex 4 X-coordinate {m}
    -6.750000000000,         !- Vertex 4 Y-coordinate {m}
    13.500000000000;         !- Vertex 4 Z-coordinate {m}

FenestrationSurface:Detailed,
    AEFAC9,                  !- Name
    Door,                    !- Surface Type
    Exterior Door,           !- Construction Name
    38765C,                  !- Building Surface Name
    ,                        !- Outside Boundary Condition Object
    ,                        !- View Factor to Ground
    ,                        !- Frame and Divider Name
    ,                        !- Multiplier
    4,                       !- Number of Vertices
    8.125000000000,          !- Vertex 1 X-coordinate {m}
    -3.600000000000,         !- Vertex 1 Y-coordinate {m}
    2.100000000000,          !- Vertex 1 Z-coordinate {m}
    8.125000000000,          !- Vertex 2 X-coordinate {m}
    -3.600000000000,         !- Vertex 2 Y-coordinate {m}
    0.000000000000,          !- Vertex 2 Z-coordinate {m}
    9.025000000000,          !- Vertex 3 X-coordinate {m}
    -3.600000000000,         !- Vertex 3 Y-coordinate {m}
    0.000000000000,          !- Vertex 3 Z-coordinate {m}
    9.025000000000,          !- Vertex 4 X-coordinate {m}
    -3.600000000000,         !- Vertex 4 Y-coordinate {m}
    2.100000000000;          !- Vertex 4 Z-coordinate {m}

FenestrationSurface:Detailed,
    P1_W05 (Kitchen),        !- Name
    Window,                  !- Surface Type
    Exterior Window,         !- Construction Name
    357850,                  !- Building Surface Name
    ,                        !- Outside Boundary Condition Object
    ,                        !- View Factor to Ground
    ,                        !- Frame and Divider Name
    ,                        !- Multiplier
    4,                       !- Number of Vertices
    1.350000000000,          !- Vertex 1 X-coordinate {m}
    -0.275000000000,         !- Vertex 1 Y-coordinate {m}
    2.100000000000,          !- Vertex 1 Z-coordinate {m}
    1.350000000000,          !- Vertex 2 X-coordinate {m}
    -0.275000000000,         !- Vertex 2 Y-coordinate {m}
    1.100000000000,          !- Vertex 2 Z-coordinate {m}
    1.350000000000,          !- Vertex 3 X-coordinate {m}
    -0.675000000000,         !- Vertex 3 Y-coordinate {m}
    1.100000000000,          !- Vertex 3 Z-coordinate {m}
    1.350000000000,          !- Vertex 4 X-coordinate {m}
    -0.675000000000,         !- Vertex 4 Y-coordinate {m}
    2.100000000000;          !- Vertex 4 Z-coordinate {m}

FenestrationSurface:Detailed,
    P1_W04 (WC),             !- Name
    Window,                  !- Surface Type
    Exterior Window,         !- Construction Name
    79F336,                  !- Building Surface Name
    ,                        !- Outside Boundary Condition Object
    ,                        !- View Factor to Ground
    ,                        !- Frame and Divider Name
    ,                        !- Multiplier
    4,                       !- Number of Vertices
    1.050000000000,          !- Vertex 1 X-coordinate {m}
    -0.950000000000,         !- Vertex 1 Y-coordinate {m}
    2.100000000000,          !- Vertex 1 Z-coordinate {m}
    1.050000000000,          !- Vertex 2 X-coordinate {m}
    -0.950000000000,         !- Vertex 2 Y-coordinate {m}
    1.350000000000,          !- Vertex 2 Z-coordinate {m}
    0.300000000000,          !- Vertex 3 X-coordinate {m}
    -0.950000000000,         !- Vertex 3 Y-coordinate {m}
    1.350000000000,          !- Vertex 3 Z-coordinate {m}
    0.300000000000,          !- Vertex 4 X-coordinate {m}
    -0.950000000000,         !- Vertex 4 Y-coordinate {m}
    2.100000000000;          !- Vertex 4 Z-coordinate {m}

FenestrationSurface:Detailed,
    P2_W05 (Kitchen),        !- Name
    Window,                  !- Surface Type
    Exterior Window,         !- Construction Name
    E531CB,                  !- Building Surface Name
    ,                        !- Outside Boundary Condition Object
    ,                        !- View Factor to Ground
    ,                        !- Frame and Divider Name
    ,                        !- Multiplier
    4,                       !- Number of Vertices
    1.350000000000,          !- Vertex 1 X-coordinate {m}
    -0.275000000000,         !- Vertex 1 Y-coordinate {m}
    4.950000000000,          !- Vertex 1 Z-coordinate {m}
    1.350000000000,          !- Vertex 2 X-coordinate {m}
    -0.275000000000,         !- Vertex 2 Y-coordinate {m}
    3.950000000000,          !- Vertex 2 Z-coordinate {m}
    1.350000000000,          !- Vertex 3 X-coordinate {m}
    -0.675000000000,         !- Vertex 3 Y-coordinate {m}
    3.950000000000,          !- Vertex 3 Z-coordinate {m}
    1.350000000000,          !- Vertex 4 X-coordinate {m}
    -0.675000000000,         !- Vertex 4 Y-coordinate {m}
    4.950000000000;          !- Vertex 4 Z-coordinate {m}

FenestrationSurface:Detailed,
    P2_W04 (WC),             !- Name
    Window,                  !- Surface Type
    Exterior Window,         !- Construction Name
    F6610B,                  !- Building Surface Name
    ,                        !- Outside Boundary Condition Object
    ,                        !- View Factor to Ground
    ,                        !- Frame and Divider Name
    ,                        !- Multiplier
    4,                       !- Number of Vertices
    1.050000000000,          !- Vertex 1 X-coordinate {m}
    -0.950000000000,         !- Vertex 1 Y-coordinate {m}
    4.950000000000,          !- Vertex 1 Z-coordinate {m}
    1.050000000000,          !- Vertex 2 X-coordinate {m}
    -0.950000000000,         !- Vertex 2 Y-coordinate {m}
    4.200000000000,          !- Vertex 2 Z-coordinate {m}
    0.300000000000,          !- Vertex 3 X-coordinate {m}
    -0.950000000000,         !- Vertex 3 Y-coordinate {m}
    4.200000000000,          !- Vertex 3 Z-coordinate {m}
    0.300000000000,          !- Vertex 4 X-coordinate {m}
    -0.950000000000,         !- Vertex 4 Y-coordinate {m}
    4.950000000000;          !- Vertex 4 Z-coordinate {m}

FenestrationSurface:Detailed,
    P3_W05 (Kitchen),        !- Name
    Window,                  !- Surface Type
    Exterior Window,         !- Construction Name
    AE3433,                  !- Building Surface Name
    ,                        !- Outside Boundary Condition Object
    ,                        !- View Factor to Ground
    ,                        !- Frame and Divider Name
    ,                        !- Multiplier
    4,                       !- Number of Vertices
    1.350000000000,          !- Vertex 1 X-coordinate {m}
    -0.275000000000,         !- Vertex 1 Y-coordinate {m}
    7.800000000000,          !- Vertex 1 Z-coordinate {m}
    1.350000000000,          !- Vertex 2 X-coordinate {m}
    -0.275000000000,         !- Vertex 2 Y-coordinate {m}
    6.800000000000,          !- Vertex 2 Z-coordinate {m}
    1.350000000000,          !- Vertex 3 X-coordinate {m}
    -0.675000000000,         !- Vertex 3 Y-coordinate {m}
    6.800000000000,          !- Vertex 3 Z-coordinate {m}
    1.350000000000,          !- Vertex 4 X-coordinate {m}
    -0.675000000000,         !- Vertex 4 Y-coordinate {m}
    7.800000000000;          !- Vertex 4 Z-coordinate {m}

FenestrationSurface:Detailed,
    P3_W04 (WC),             !- Name
    Window,                  !- Surface Type
    Exterior Window,         !- Construction Name
    ABDB1A,                  !- Building Surface Name
    ,                        !- Outside Boundary Condition Object
    ,                        !- View Factor to Ground
    ,                        !- Frame and Divider Name
    ,                        !- Multiplier
    4,                       !- Number of Vertices
    1.050000000000,          !- Vertex 1 X-coordinate {m}
    -0.950000000000,         !- Vertex 1 Y-coordinate {m}
    7.800000000000,          !- Vertex 1 Z-coordinate {m}
    1.050000000000,          !- Vertex 2 X-coordinate {m}
    -0.950000000000,         !- Vertex 2 Y-coordinate {m}
    7.050000000000,          !- Vertex 2 Z-coordinate {m}
    0.300000000000,          !- Vertex 3 X-coordinate {m}
    -0.950000000000,         !- Vertex 3 Y-coordinate {m}
    7.050000000000,          !- Vertex 3 Z-coordinate {m}
    0.300000000000,          !- Vertex 4 X-coordinate {m}
    -0.950000000000,         !- Vertex 4 Y-coordinate {m}
    7.800000000000;          !- Vertex 4 Z-coordinate {m}

FenestrationSurface:Detailed,
    P4_W05 (Kitchen),        !- Name
    Window,                  !- Surface Type
    Exterior Window,         !- Construction Name
    618A3A,                  !- Building Surface Name
    ,                        !- Outside Boundary Condition Object
    ,                        !- View Factor to Ground
    ,                        !- Frame and Divider Name
    ,                        !- Multiplier
    4,                       !- Number of Vertices
    1.350000000000,          !- Vertex 1 X-coordinate {m}
    -0.275000000000,         !- Vertex 1 Y-coordinate {m}
    10.650000000000,         !- Vertex 1 Z-coordinate {m}
    1.350000000000,          !- Vertex 2 X-coordinate {m}
    -0.275000000000,         !- Vertex 2 Y-coordinate {m}
    9.650000000000,          !- Vertex 2 Z-coordinate {m}
    1.350000000000,          !- Vertex 3 X-coordinate {m}
    -0.675000000000,         !- Vertex 3 Y-coordinate {m}
    9.650000000000,          !- Vertex 3 Z-coordinate {m}
    1.350000000000,          !- Vertex 4 X-coordinate {m}
    -0.675000000000,         !- Vertex 4 Y-coordinate {m}
    10.650000000000;         !- Vertex 4 Z-coordinate {m}

FenestrationSurface:Detailed,
    P4_W04 (WC),             !- Name
    Window,                  !- Surface Type
    Exterior Window,         !- Construction Name
    A585D3,                  !- Building Surface Name
    ,                        !- Outside Boundary Condition Object
    ,                        !- View Factor to Ground
    ,                        !- Frame and Divider Name
    ,                        !- Multiplier
    4,                       !- Number of Vertices
    1.050000000000,          !- Vertex 1 X-coordinate {m}
    -0.950000000000,         !- Vertex 1 Y-coordinate {m}
    10.650000000000,         !- Vertex 1 Z-coordinate {m}
    1.050000000000,          !- Vertex 2 X-coordinate {m}
    -0.950000000000,         !- Vertex 2 Y-coordinate {m}
    9.900000000000,          !- Vertex 2 Z-coordinate {m}
    0.300000000000,          !- Vertex 3 X-coordinate {m}
    -0.950000000000,         !- Vertex 3 Y-coordinate {m}
    9.900000000000,          !- Vertex 3 Z-coordinate {m}
    0.300000000000,          !- Vertex 4 X-coordinate {m}
    -0.950000000000,         !- Vertex 4 Y-coordinate {m}
    10.650000000000;         !- Vertex 4 Z-coordinate {m}

FenestrationSurface:Detailed,
    P5_W05 (Kitchen),        !- Name
    Window,                  !- Surface Type
    Exterior Window,         !- Construction Name
    B5C759,                  !- Building Surface Name
    ,                        !- Outside Boundary Condition Object
    ,                        !- View Factor to Ground
    ,                        !- Frame and Divider Name
    ,                        !- Multiplier
    4,                       !- Number of Vertices
    1.350000000000,          !- Vertex 1 X-coordinate {m}
    -0.275000000000,         !- Vertex 1 Y-coordinate {m}
    13.500000000000,         !- Vertex 1 Z-coordinate {m}
    1.350000000000,          !- Vertex 2 X-coordinate {m}
    -0.275000000000,         !- Vertex 2 Y-coordinate {m}
    12.500000000000,         !- Vertex 2 Z-coordinate {m}
    1.350000000000,          !- Vertex 3 X-coordinate {m}
    -0.675000000000,         !- Vertex 3 Y-coordinate {m}
    12.500000000000,         !- Vertex 3 Z-coordinate {m}
    1.350000000000,          !- Vertex 4 X-coordinate {m}
    -0.675000000000,         !- Vertex 4 Y-coordinate {m}
    13.500000000000;         !- Vertex 4 Z-coordinate {m}

FenestrationSurface:Detailed,
    P5_W04 (WC),             !- Name
    Window,                  !- Surface Type
    Exterior Window,         !- Construction Name
    863EB5,                  !- Building Surface Name
    ,                        !- Outside Boundary Condition Object
    ,                        !- View Factor to Ground
    ,                        !- Frame and Divider Name
    ,                        !- Multiplier
    4,                       !- Number of Vertices
    1.050000000000,          !- Vertex 1 X-coordinate {m}
    -0.950000000000,         !- Vertex 1 Y-coordinate {m}
    13.500000000000,         !- Vertex 1 Z-coordinate {m}
    1.050000000000,          !- Vertex 2 X-coordinate {m}
    -0.950000000000,         !- Vertex 2 Y-coordinate {m}
    12.750000000000,         !- Vertex 2 Z-coordinate {m}
    0.300000000000,          !- Vertex 3 X-coordinate {m}
    -0.950000000000,         !- Vertex 3 Y-coordinate {m}
    12.750000000000,         !- Vertex 3 Z-coordinate {m}
    0.300000000000,          !- Vertex 4 X-coordinate {m}
    -0.950000000000,         !- Vertex 4 Y-coordinate {m}
    13.500000000000;         !- Vertex 4 Z-coordinate {m}

FenestrationSurface:Detailed,
    P1_W10 (Kitchen),        !- Name
    Window,                  !- Surface Type
    Exterior Window,         !- Construction Name
    D9998B,                  !- Building Surface Name
    ,                        !- Outside Boundary Condition Object
    ,                        !- View Factor to Ground
    ,                        !- Frame and Divider Name
    ,                        !- Multiplier
    4,                       !- Number of Vertices
    1.350000000000,          !- Vertex 1 X-coordinate {m}
    0.675000000000,          !- Vertex 1 Y-coordinate {m}
    2.100000000000,          !- Vertex 1 Z-coordinate {m}
    1.350000000000,          !- Vertex 2 X-coordinate {m}
    0.675000000000,          !- Vertex 2 Y-coordinate {m}
    1.100000000000,          !- Vertex 2 Z-coordinate {m}
    1.350000000000,          !- Vertex 3 X-coordinate {m}
    0.275000000000,          !- Vertex 3 Y-coordinate {m}
    1.100000000000,          !- Vertex 3 Z-coordinate {m}
    1.350000000000,          !- Vertex 4 X-coordinate {m}
    0.275000000000,          !- Vertex 4 Y-coordinate {m}
    2.100000000000;          !- Vertex 4 Z-coordinate {m}

FenestrationSurface:Detailed,
    P1_W09 (WC),             !- Name
    Window,                  !- Surface Type
    Exterior Window,         !- Construction Name
    D0C134,                  !- Building Surface Name
    ,                        !- Outside Boundary Condition Object
    ,                        !- View Factor to Ground
    ,                        !- Frame and Divider Name
    ,                        !- Multiplier
    4,                       !- Number of Vertices
    0.300000000000,          !- Vertex 1 X-coordinate {m}
    0.950000000000,          !- Vertex 1 Y-coordinate {m}
    2.200000000000,          !- Vertex 1 Z-coordinate {m}
    0.300000000000,          !- Vertex 2 X-coordinate {m}
    0.950000000000,          !- Vertex 2 Y-coordinate {m}
    1.450000000000,          !- Vertex 2 Z-coordinate {m}
    1.050000000000,          !- Vertex 3 X-coordinate {m}
    0.950000000000,          !- Vertex 3 Y-coordinate {m}
    1.450000000000,          !- Vertex 3 Z-coordinate {m}
    1.050000000000,          !- Vertex 4 X-coordinate {m}
    0.950000000000,          !- Vertex 4 Y-coordinate {m}
    2.200000000000;          !- Vertex 4 Z-coordinate {m}

FenestrationSurface:Detailed,
    P2_W10 (Kitchen),        !- Name
    Window,                  !- Surface Type
    Exterior Window,         !- Construction Name
    16B9ED,                  !- Building Surface Name
    ,                        !- Outside Boundary Condition Object
    ,                        !- View Factor to Ground
    ,                        !- Frame and Divider Name
    ,                        !- Multiplier
    4,                       !- Number of Vertices
    1.350000000000,          !- Vertex 1 X-coordinate {m}
    0.675000000000,          !- Vertex 1 Y-coordinate {m}
    4.950000000000,          !- Vertex 1 Z-coordinate {m}
    1.350000000000,          !- Vertex 2 X-coordinate {m}
    0.675000000000,          !- Vertex 2 Y-coordinate {m}
    3.950000000000,          !- Vertex 2 Z-coordinate {m}
    1.350000000000,          !- Vertex 3 X-coordinate {m}
    0.275000000000,          !- Vertex 3 Y-coordinate {m}
    3.950000000000,          !- Vertex 3 Z-coordinate {m}
    1.350000000000,          !- Vertex 4 X-coordinate {m}
    0.275000000000,          !- Vertex 4 Y-coordinate {m}
    4.950000000000;          !- Vertex 4 Z-coordinate {m}

FenestrationSurface:Detailed,
    P2_W09 (WC),             !- Name
    Window,                  !- Surface Type
    Exterior Window,         !- Construction Name
    9BA552,                  !- Building Surface Name
    ,                        !- Outside Boundary Condition Object
    ,                        !- View Factor to Ground
    ,                        !- Frame and Divider Name
    ,                        !- Multiplier
    4,                       !- Number of Vertices
    0.300000000000,          !- Vertex 1 X-coordinate {m}
    0.950000000000,          !- Vertex 1 Y-coordinate {m}
    4.950000000000,          !- Vertex 1 Z-coordinate {m}
    0.300000000000,          !- Vertex 2 X-coordinate {m}
    0.950000000000,          !- Vertex 2 Y-coordinate {m}
    4.200000000000,          !- Vertex 2 Z-coordinate {m}
    1.050000000000,          !- Vertex 3 X-coordinate {m}
    0.950000000000,          !- Vertex 3 Y-coordinate {m}
    4.200000000000,          !- Vertex 3 Z-coordinate {m}
    1.050000000000,          !- Vertex 4 X-coordinate {m}
    0.950000000000,          !- Vertex 4 Y-coordinate {m}
    4.950000000000;          !- Vertex 4 Z-coordinate {m}

FenestrationSurface:Detailed,
    P3_W10 (Kitchen),        !- Name
    Window,                  !- Surface Type
    Exterior Window,         !- Construction Name
    120AF4,                  !- Building Surface Name
    ,                        !- Outside Boundary Condition Object
    ,                        !- View Factor to Ground
    ,                        !- Frame and Divider Name
    ,                        !- Multiplier
    4,                       !- Number of Vertices
    1.350000000000,          !- Vertex 1 X-coordinate {m}
    0.675000000000,          !- Vertex 1 Y-coordinate {m}
    7.800000000000,          !- Vertex 1 Z-coordinate {m}
    1.350000000000,          !- Vertex 2 X-coordinate {m}
    0.675000000000,          !- Vertex 2 Y-coordinate {m}
    6.800000000000,          !- Vertex 2 Z-coordinate {m}
    1.350000000000,          !- Vertex 3 X-coordinate {m}
    0.275000000000,          !- Vertex 3 Y-coordinate {m}
    6.800000000000,          !- Vertex 3 Z-coordinate {m}
    1.350000000000,          !- Vertex 4 X-coordinate {m}
    0.275000000000,          !- Vertex 4 Y-coordinate {m}
    7.800000000000;          !- Vertex 4 Z-coordinate {m}

FenestrationSurface:Detailed,
    P3_W09 (WC),             !- Name
    Window,                  !- Surface Type
    Exterior Window,         !- Construction Name
    B81252,                  !- Building Surface Name
    ,                        !- Outside Boundary Condition Object
    ,                        !- View Factor to Ground
    ,                        !- Frame and Divider Name
    ,                        !- Multiplier
    4,                       !- Number of Vertices
    0.300000000000,          !- Vertex 1 X-coordinate {m}
    0.950000000000,          !- Vertex 1 Y-coordinate {m}
    7.800000000000,          !- Vertex 1 Z-coordinate {m}
    0.300000000000,          !- Vertex 2 X-coordinate {m}
    0.950000000000,          !- Vertex 2 Y-coordinate {m}
    7.050000000000,          !- Vertex 2 Z-coordinate {m}
    1.050000000000,          !- Vertex 3 X-coordinate {m}
    0.950000000000,          !- Vertex 3 Y-coordinate {m}
    7.050000000000,          !- Vertex 3 Z-coordinate {m}
    1.050000000000,          !- Vertex 4 X-coordinate {m}
    0.950000000000,          !- Vertex 4 Y-coordinate {m}
    7.800000000000;          !- Vertex 4 Z-coordinate {m}

FenestrationSurface:Detailed,
    P4_W10 (Kitchen),        !- Name
    Window,                  !- Surface Type
    Exterior Window,         !- Construction Name
    B6F668,                  !- Building Surface Name
    ,                        !- Outside Boundary Condition Object
    ,                        !- View Factor to Ground
    ,                        !- Frame and Divider Name
    ,                        !- Multiplier
    4,                       !- Number of Vertices
    1.350000000000,          !- Vertex 1 X-coordinate {m}
    0.675000000000,          !- Vertex 1 Y-coordinate {m}
    10.650000000000,         !- Vertex 1 Z-coordinate {m}
    1.350000000000,          !- Vertex 2 X-coordinate {m}
    0.675000000000,          !- Vertex 2 Y-coordinate {m}
    9.650000000000,          !- Vertex 2 Z-coordinate {m}
    1.350000000000,          !- Vertex 3 X-coordinate {m}
    0.275000000000,          !- Vertex 3 Y-coordinate {m}
    9.650000000000,          !- Vertex 3 Z-coordinate {m}
    1.350000000000,          !- Vertex 4 X-coordinate {m}
    0.275000000000,          !- Vertex 4 Y-coordinate {m}
    10.650000000000;         !- Vertex 4 Z-coordinate {m}

FenestrationSurface:Detailed,
    P4_W09 (WC),             !- Name
    Window,                  !- Surface Type
    Exterior Window,         !- Construction Name
    434FAC,                  !- Building Surface Name
    ,                        !- Outside Boundary Condition Object
    ,                        !- View Factor to Ground
    ,                        !- Frame and Divider Name
    ,                        !- Multiplier
    4,                       !- Number of Vertices
    0.300000000000,          !- Vertex 1 X-coordinate {m}
    0.950000000000,          !- Vertex 1 Y-coordinate {m}
    10.650000000000,         !- Vertex 1 Z-coordinate {m}
    0.300000000000,          !- Vertex 2 X-coordinate {m}
    0.950000000000,          !- Vertex 2 Y-coordinate {m}
    9.900000000000,          !- Vertex 2 Z-coordinate {m}
    1.050000000000,          !- Vertex 3 X-coordinate {m}
    0.950000000000,          !- Vertex 3 Y-coordinate {m}
    9.900000000000,          !- Vertex 3 Z-coordinate {m}
    1.050000000000,          !- Vertex 4 X-coordinate {m}
    0.950000000000,          !- Vertex 4 Y-coordinate {m}
    10.650000000000;         !- Vertex 4 Z-coordinate {m}

FenestrationSurface:Detailed,
    P5_W10 (Kitchen),        !- Name
    Window,                  !- Surface Type
    Exterior Window,         !- Construction Name
    FE6803,                  !- Building Surface Name
    ,                        !- Outside Boundary Condition Object
    ,                        !- View Factor to Ground
    ,                        !- Frame and Divider Name
    ,                        !- Multiplier
    4,                       !- Number of Vertices
    1.350000000000,          !- Vertex 1 X-coordinate {m}
    0.675000000000,          !- Vertex 1 Y-coordinate {m}
    13.500000000000,         !- Vertex 1 Z-coordinate {m}
    1.350000000000,          !- Vertex 2 X-coordinate {m}
    0.675000000000,          !- Vertex 2 Y-coordinate {m}
    12.500000000000,         !- Vertex 2 Z-coordinate {m}
    1.350000000000,          !- Vertex 3 X-coordinate {m}
    0.275000000000,          !- Vertex 3 Y-coordinate {m}
    12.500000000000,         !- Vertex 3 Z-coordinate {m}
    1.350000000000,          !- Vertex 4 X-coordinate {m}
    0.275000000000,          !- Vertex 4 Y-coordinate {m}
    13.500000000000;         !- Vertex 4 Z-coordinate {m}

FenestrationSurface:Detailed,
    P5_W09 (WC),             !- Name
    Window,                  !- Surface Type
    Exterior Window,         !- Construction Name
    5950C7,                  !- Building Surface Name
    ,                        !- Outside Boundary Condition Object
    ,                        !- View Factor to Ground
    ,                        !- Frame and Divider Name
    ,                        !- Multiplier
    4,                       !- Number of Vertices
    0.300000000000,          !- Vertex 1 X-coordinate {m}
    0.950000000000,          !- Vertex 1 Y-coordinate {m}
    13.500000000000,         !- Vertex 1 Z-coordinate {m}
    0.300000000000,          !- Vertex 2 X-coordinate {m}
    0.950000000000,          !- Vertex 2 Y-coordinate {m}
    12.750000000000,         !- Vertex 2 Z-coordinate {m}
    1.050000000000,          !- Vertex 3 X-coordinate {m}
    0.950000000000,          !- Vertex 3 Y-coordinate {m}
    12.750000000000,         !- Vertex 3 Z-coordinate {m}
    1.050000000000,          !- Vertex 4 X-coordinate {m}
    0.950000000000,          !- Vertex 4 Y-coordinate {m}
    13.500000000000;         !- Vertex 4 Z-coordinate {m}

FenestrationSurface:Detailed,
    P1_W20 (Kitchen),        !- Name
    Window,                  !- Surface Type
    Exterior Window,         !- Construction Name
    2B2B70,                  !- Building Surface Name
    ,                        !- Outside Boundary Condition Object
    ,                        !- View Factor to Ground
    ,                        !- Frame and Divider Name
    ,                        !- Multiplier
    4,                       !- Number of Vertices
    15.800000000000,         !- Vertex 1 X-coordinate {m}
    -0.675000000000,         !- Vertex 1 Y-coordinate {m}
    2.100000000000,          !- Vertex 1 Z-coordinate {m}
    15.800000000000,         !- Vertex 2 X-coordinate {m}
    -0.675000000000,         !- Vertex 2 Y-coordinate {m}
    1.100000000000,          !- Vertex 2 Z-coordinate {m}
    15.800000000000,         !- Vertex 3 X-coordinate {m}
    -0.275000000000,         !- Vertex 3 Y-coordinate {m}
    1.100000000000,          !- Vertex 3 Z-coordinate {m}
    15.800000000000,         !- Vertex 4 X-coordinate {m}
    -0.275000000000,         !- Vertex 4 Y-coordinate {m}
    2.100000000000;          !- Vertex 4 Z-coordinate {m}

FenestrationSurface:Detailed,
    P1_W19 (WC),             !- Name
    Window,                  !- Surface Type
    Exterior Window,         !- Construction Name
    FA2B7B,                  !- Building Surface Name
    ,                        !- Outside Boundary Condition Object
    ,                        !- View Factor to Ground
    ,                        !- Frame and Divider Name
    ,                        !- Multiplier
    4,                       !- Number of Vertices
    16.850000000000,         !- Vertex 1 X-coordinate {m}
    -0.950000000000,         !- Vertex 1 Y-coordinate {m}
    2.100000000000,          !- Vertex 1 Z-coordinate {m}
    16.850000000000,         !- Vertex 2 X-coordinate {m}
    -0.950000000000,         !- Vertex 2 Y-coordinate {m}
    1.350000000000,          !- Vertex 2 Z-coordinate {m}
    16.100000000000,         !- Vertex 3 X-coordinate {m}
    -0.950000000000,         !- Vertex 3 Y-coordinate {m}
    1.350000000000,          !- Vertex 3 Z-coordinate {m}
    16.100000000000,         !- Vertex 4 X-coordinate {m}
    -0.950000000000,         !- Vertex 4 Y-coordinate {m}
    2.100000000000;          !- Vertex 4 Z-coordinate {m}

FenestrationSurface:Detailed,
    P2_W20 (Kitchen),        !- Name
    Window,                  !- Surface Type
    Exterior Window,         !- Construction Name
    2A7B38,                  !- Building Surface Name
    ,                        !- Outside Boundary Condition Object
    ,                        !- View Factor to Ground
    ,                        !- Frame and Divider Name
    ,                        !- Multiplier
    4,                       !- Number of Vertices
    15.800000000000,         !- Vertex 1 X-coordinate {m}
    -0.675000000000,         !- Vertex 1 Y-coordinate {m}
    4.950000000000,          !- Vertex 1 Z-coordinate {m}
    15.800000000000,         !- Vertex 2 X-coordinate {m}
    -0.675000000000,         !- Vertex 2 Y-coordinate {m}
    3.950000000000,          !- Vertex 2 Z-coordinate {m}
    15.800000000000,         !- Vertex 3 X-coordinate {m}
    -0.275000000000,         !- Vertex 3 Y-coordinate {m}
    3.950000000000,          !- Vertex 3 Z-coordinate {m}
    15.800000000000,         !- Vertex 4 X-coordinate {m}
    -0.275000000000,         !- Vertex 4 Y-coordinate {m}
    4.950000000000;          !- Vertex 4 Z-coordinate {m}

FenestrationSurface:Detailed,
    P2_W19 (WC),             !- Name
    Window,                  !- Surface Type
    Exterior Window,         !- Construction Name
    E6927A,                  !- Building Surface Name
    ,                        !- Outside Boundary Condition Object
    ,                        !- View Factor to Ground
    ,                        !- Frame and Divider Name
    ,                        !- Multiplier
    4,                       !- Number of Vertices
    16.850000000000,         !- Vertex 1 X-coordinate {m}
    -0.950000000000,         !- Vertex 1 Y-coordinate {m}
    4.950000000000,          !- Vertex 1 Z-coordinate {m}
    16.850000000000,         !- Vertex 2 X-coordinate {m}
    -0.950000000000,         !- Vertex 2 Y-coordinate {m}
    4.200000000000,          !- Vertex 2 Z-coordinate {m}
    16.100000000000,         !- Vertex 3 X-coordinate {m}
    -0.950000000000,         !- Vertex 3 Y-coordinate {m}
    4.200000000000,          !- Vertex 3 Z-coordinate {m}
    16.100000000000,         !- Vertex 4 X-coordinate {m}
    -0.950000000000,         !- Vertex 4 Y-coordinate {m}
    4.950000000000;          !- Vertex 4 Z-coordinate {m}

FenestrationSurface:Detailed,
    P3_W20 (Kitchen),        !- Name
    Window,                  !- Surface Type
    Exterior Window,         !- Construction Name
    95078C,                  !- Building Surface Name
    ,                        !- Outside Boundary Condition Object
    ,                        !- View Factor to Ground
    ,                        !- Frame and Divider Name
    ,                        !- Multiplier
    4,                       !- Number of Vertices
    15.800000000000,         !- Vertex 1 X-coordinate {m}
    -0.675000000000,         !- Vertex 1 Y-coordinate {m}
    7.800000000000,          !- Vertex 1 Z-coordinate {m}
    15.800000000000,         !- Vertex 2 X-coordinate {m}
    -0.675000000000,         !- Vertex 2 Y-coordinate {m}
    6.800000000000,          !- Vertex 2 Z-coordinate {m}
    15.800000000000,         !- Vertex 3 X-coordinate {m}
    -0.275000000000,         !- Vertex 3 Y-coordinate {m}
    6.800000000000,          !- Vertex 3 Z-coordinate {m}
    15.800000000000,         !- Vertex 4 X-coordinate {m}
    -0.275000000000,         !- Vertex 4 Y-coordinate {m}
    7.800000000000;          !- Vertex 4 Z-coordinate {m}

FenestrationSurface:Detailed,
    P3_W19 (WC),             !- Name
    Window,                  !- Surface Type
    Exterior Window,         !- Construction Name
    7A1838,                  !- Building Surface Name
    ,                        !- Outside Boundary Condition Object
    ,                        !- View Factor to Ground
    ,                        !- Frame and Divider Name
    ,                        !- Multiplier
    4,                       !- Number of Vertices
    16.850000000000,         !- Vertex 1 X-coordinate {m}
    -0.950000000000,         !- Vertex 1 Y-coordinate {m}
    7.800000000000,          !- Vertex 1 Z-coordinate {m}
    16.850000000000,         !- Vertex 2 X-coordinate {m}
    -0.950000000000,         !- Vertex 2 Y-coordinate {m}
    7.050000000000,          !- Vertex 2 Z-coordinate {m}
    16.100000000000,         !- Vertex 3 X-coordinate {m}
    -0.950000000000,         !- Vertex 3 Y-coordinate {m}
    7.050000000000,          !- Vertex 3 Z-coordinate {m}
    16.100000000000,         !- Vertex 4 X-coordinate {m}
    -0.950000000000,         !- Vertex 4 Y-coordinate {m}
    7.800000000000;          !- Vertex 4 Z-coordinate {m}

FenestrationSurface:Detailed,
    P4_W20 (Kitchen),        !- Name
    Window,                  !- Surface Type
    Exterior Window,         !- Construction Name
    3040F6,                  !- Building Surface Name
    ,                        !- Outside Boundary Condition Object
    ,                        !- View Factor to Ground
    ,                        !- Frame and Divider Name
    ,                        !- Multiplier
    4,                       !- Number of Vertices
    15.800000000000,         !- Vertex 1 X-coordinate {m}
    -0.675000000000,         !- Vertex 1 Y-coordinate {m}
    10.660000000000,         !- Vertex 1 Z-coordinate {m}
    15.800000000000,         !- Vertex 2 X-coordinate {m}
    -0.675000000000,         !- Vertex 2 Y-coordinate {m}
    9.660000000000,          !- Vertex 2 Z-coordinate {m}
    15.800000000000,         !- Vertex 3 X-coordinate {m}
    -0.275000000000,         !- Vertex 3 Y-coordinate {m}
    9.660000000000,          !- Vertex 3 Z-coordinate {m}
    15.800000000000,         !- Vertex 4 X-coordinate {m}
    -0.275000000000,         !- Vertex 4 Y-coordinate {m}
    10.660000000000;         !- Vertex 4 Z-coordinate {m}

FenestrationSurface:Detailed,
    P4_W19 (WC),             !- Name
    Window,                  !- Surface Type
    Exterior Window,         !- Construction Name
    D22D8D,                  !- Building Surface Name
    ,                        !- Outside Boundary Condition Object
    ,                        !- View Factor to Ground
    ,                        !- Frame and Divider Name
    ,                        !- Multiplier
    4,                       !- Number of Vertices
    16.850000000000,         !- Vertex 1 X-coordinate {m}
    -0.950000000000,         !- Vertex 1 Y-coordinate {m}
    10.650000000000,         !- Vertex 1 Z-coordinate {m}
    16.850000000000,         !- Vertex 2 X-coordinate {m}
    -0.950000000000,         !- Vertex 2 Y-coordinate {m}
    9.900000000000,          !- Vertex 2 Z-coordinate {m}
    16.100000000000,         !- Vertex 3 X-coordinate {m}
    -0.950000000000,         !- Vertex 3 Y-coordinate {m}
    9.900000000000,          !- Vertex 3 Z-coordinate {m}
    16.100000000000,         !- Vertex 4 X-coordinate {m}
    -0.950000000000,         !- Vertex 4 Y-coordinate {m}
    10.650000000000;         !- Vertex 4 Z-coordinate {m}

FenestrationSurface:Detailed,
    P5_W20 (Kitchen),        !- Name
    Window,                  !- Surface Type
    Exterior Window,         !- Construction Name
    A190E7,                  !- Building Surface Name
    ,                        !- Outside Boundary Condition Object
    ,                        !- View Factor to Ground
    ,                        !- Frame and Divider Name
    ,                        !- Multiplier
    4,                       !- Number of Vertices
    15.800000000000,         !- Vertex 1 X-coordinate {m}
    -0.675000000000,         !- Vertex 1 Y-coordinate {m}
    13.500000000000,         !- Vertex 1 Z-coordinate {m}
    15.800000000000,         !- Vertex 2 X-coordinate {m}
    -0.675000000000,         !- Vertex 2 Y-coordinate {m}
    12.500000000000,         !- Vertex 2 Z-coordinate {m}
    15.800000000000,         !- Vertex 3 X-coordinate {m}
    -0.275000000000,         !- Vertex 3 Y-coordinate {m}
    12.500000000000,         !- Vertex 3 Z-coordinate {m}
    15.800000000000,         !- Vertex 4 X-coordinate {m}
    -0.275000000000,         !- Vertex 4 Y-coordinate {m}
    13.500000000000;         !- Vertex 4 Z-coordinate {m}

FenestrationSurface:Detailed,
    P5_W19 (WC),             !- Name
    Window,                  !- Surface Type
    Exterior Window,         !- Construction Name
    93754D,                  !- Building Surface Name
    ,                        !- Outside Boundary Condition Object
    ,                        !- View Factor to Ground
    ,                        !- Frame and Divider Name
    ,                        !- Multiplier
    4,                       !- Number of Vertices
    16.850000000000,         !- Vertex 1 X-coordinate {m}
    -0.950000000000,         !- Vertex 1 Y-coordinate {m}
    13.500000000000,         !- Vertex 1 Z-coordinate {m}
    16.850000000000,         !- Vertex 2 X-coordinate {m}
    -0.950000000000,         !- Vertex 2 Y-coordinate {m}
    12.750000000000,         !- Vertex 2 Z-coordinate {m}
    16.100000000000,         !- Vertex 3 X-coordinate {m}
    -0.950000000000,         !- Vertex 3 Y-coordinate {m}
    12.750000000000,         !- Vertex 3 Z-coordinate {m}
    16.100000000000,         !- Vertex 4 X-coordinate {m}
    -0.950000000000,         !- Vertex 4 Y-coordinate {m}
    13.500000000000;         !- Vertex 4 Z-coordinate {m}

FenestrationSurface:Detailed,
    P1_W15 (Kitchen),        !- Name
    Window,                  !- Surface Type
    Exterior Window,         !- Construction Name
    68AD2F,                  !- Building Surface Name
    ,                        !- Outside Boundary Condition Object
    ,                        !- View Factor to Ground
    ,                        !- Frame and Divider Name
    ,                        !- Multiplier
    4,                       !- Number of Vertices
    15.800000000000,         !- Vertex 1 X-coordinate {m}
    0.275000000000,          !- Vertex 1 Y-coordinate {m}
    2.100000000000,          !- Vertex 1 Z-coordinate {m}
    15.800000000000,         !- Vertex 2 X-coordinate {m}
    0.275000000000,          !- Vertex 2 Y-coordinate {m}
    1.100000000000,          !- Vertex 2 Z-coordinate {m}
    15.800000000000,         !- Vertex 3 X-coordinate {m}
    0.675000000000,          !- Vertex 3 Y-coordinate {m}
    1.100000000000,          !- Vertex 3 Z-coordinate {m}
    15.800000000000,         !- Vertex 4 X-coordinate {m}
    0.675000000000,          !- Vertex 4 Y-coordinate {m}
    2.100000000000;          !- Vertex 4 Z-coordinate {m}

FenestrationSurface:Detailed,
    P1_W14 (WC),             !- Name
    Window,                  !- Surface Type
    Exterior Window,         !- Construction Name
    DC49BD,                  !- Building Surface Name
    ,                        !- Outside Boundary Condition Object
    ,                        !- View Factor to Ground
    ,                        !- Frame and Divider Name
    ,                        !- Multiplier
    4,                       !- Number of Vertices
    16.100000000000,         !- Vertex 1 X-coordinate {m}
    0.950000000000,          !- Vertex 1 Y-coordinate {m}
    2.100000000000,          !- Vertex 1 Z-coordinate {m}
    16.100000000000,         !- Vertex 2 X-coordinate {m}
    0.950000000000,          !- Vertex 2 Y-coordinate {m}
    1.350000000000,          !- Vertex 2 Z-coordinate {m}
    16.850000000000,         !- Vertex 3 X-coordinate {m}
    0.950000000000,          !- Vertex 3 Y-coordinate {m}
    1.350000000000,          !- Vertex 3 Z-coordinate {m}
    16.850000000000,         !- Vertex 4 X-coordinate {m}
    0.950000000000,          !- Vertex 4 Y-coordinate {m}
    2.100000000000;          !- Vertex 4 Z-coordinate {m}

FenestrationSurface:Detailed,
    P2_W15 (Kitchen),        !- Name
    Window,                  !- Surface Type
    Exterior Window,         !- Construction Name
    70C585,                  !- Building Surface Name
    ,                        !- Outside Boundary Condition Object
    ,                        !- View Factor to Ground
    ,                        !- Frame and Divider Name
    ,                        !- Multiplier
    4,                       !- Number of Vertices
    15.800000000000,         !- Vertex 1 X-coordinate {m}
    0.275000000000,          !- Vertex 1 Y-coordinate {m}
    4.950000000000,          !- Vertex 1 Z-coordinate {m}
    15.800000000000,         !- Vertex 2 X-coordinate {m}
    0.275000000000,          !- Vertex 2 Y-coordinate {m}
    3.950000000000,          !- Vertex 2 Z-coordinate {m}
    15.800000000000,         !- Vertex 3 X-coordinate {m}
    0.675000000000,          !- Vertex 3 Y-coordinate {m}
    3.950000000000,          !- Vertex 3 Z-coordinate {m}
    15.800000000000,         !- Vertex 4 X-coordinate {m}
    0.675000000000,          !- Vertex 4 Y-coordinate {m}
    4.950000000000;          !- Vertex 4 Z-coordinate {m}

FenestrationSurface:Detailed,
    P2_W14 (WC),             !- Name
    Window,                  !- Surface Type
    Exterior Window,         !- Construction Name
    D6AC5F,                  !- Building Surface Name
    ,                        !- Outside Boundary Condition Object
    ,                        !- View Factor to Ground
    ,                        !- Frame and Divider Name
    ,                        !- Multiplier
    4,                       !- Number of Vertices
    16.100000000000,         !- Vertex 1 X-coordinate {m}
    0.950000000000,          !- Vertex 1 Y-coordinate {m}
    4.950000000000,          !- Vertex 1 Z-coordinate {m}
    16.100000000000,         !- Vertex 2 X-coordinate {m}
    0.950000000000,          !- Vertex 2 Y-coordinate {m}
    4.200000000000,          !- Vertex 2 Z-coordinate {m}
    16.850000000000,         !- Vertex 3 X-coordinate {m}
    0.950000000000,          !- Vertex 3 Y-coordinate {m}
    4.200000000000,          !- Vertex 3 Z-coordinate {m}
    16.850000000000,         !- Vertex 4 X-coordinate {m}
    0.950000000000,          !- Vertex 4 Y-coordinate {m}
    4.950000000000;          !- Vertex 4 Z-coordinate {m}

FenestrationSurface:Detailed,
    P3_W15 (Kitchen),        !- Name
    Window,                  !- Surface Type
    Exterior Window,         !- Construction Name
    CB8D59,                  !- Building Surface Name
    ,                        !- Outside Boundary Condition Object
    ,                        !- View Factor to Ground
    ,                        !- Frame and Divider Name
    ,                        !- Multiplier
    4,                       !- Number of Vertices
    15.800000000000,         !- Vertex 1 X-coordinate {m}
    0.275000000000,          !- Vertex 1 Y-coordinate {m}
    7.800000000000,          !- Vertex 1 Z-coordinate {m}
    15.800000000000,         !- Vertex 2 X-coordinate {m}
    0.275000000000,          !- Vertex 2 Y-coordinate {m}
    6.800000000000,          !- Vertex 2 Z-coordinate {m}
    15.800000000000,         !- Vertex 3 X-coordinate {m}
    0.675000000000,          !- Vertex 3 Y-coordinate {m}
    6.800000000000,          !- Vertex 3 Z-coordinate {m}
    15.800000000000,         !- Vertex 4 X-coordinate {m}
    0.675000000000,          !- Vertex 4 Y-coordinate {m}
    7.800000000000;          !- Vertex 4 Z-coordinate {m}

FenestrationSurface:Detailed,
    P3_W14 (WC),             !- Name
    Window,                  !- Surface Type
    Exterior Window,         !- Construction Name
    29826B,                  !- Building Surface Name
    ,                        !- Outside Boundary Condition Object
    ,                        !- View Factor to Ground
    ,                        !- Frame and Divider Name
    ,                        !- Multiplier
    4,                       !- Number of Vertices
    16.100000000000,         !- Vertex 1 X-coordinate {m}
    0.950000000000,          !- Vertex 1 Y-coordinate {m}
    7.800000000000,          !- Vertex 1 Z-coordinate {m}
    16.100000000000,         !- Vertex 2 X-coordinate {m}
    0.950000000000,          !- Vertex 2 Y-coordinate {m}
    7.050000000000,          !- Vertex 2 Z-coordinate {m}
    16.850000000000,         !- Vertex 3 X-coordinate {m}
    0.950000000000,          !- Vertex 3 Y-coordinate {m}
    7.050000000000,          !- Vertex 3 Z-coordinate {m}
    16.850000000000,         !- Vertex 4 X-coordinate {m}
    0.950000000000,          !- Vertex 4 Y-coordinate {m}
    7.800000000000;          !- Vertex 4 Z-coordinate {m}

FenestrationSurface:Detailed,
    P4_W15 (Kitchen),        !- Name
    Window,                  !- Surface Type
    Exterior Window,         !- Construction Name
    5AA1A7,                  !- Building Surface Name
    ,                        !- Outside Boundary Condition Object
    ,                        !- View Factor to Ground
    ,                        !- Frame and Divider Name
    ,                        !- Multiplier
    4,                       !- Number of Vertices
    15.800000000000,         !- Vertex 1 X-coordinate {m}
    0.275000000000,          !- Vertex 1 Y-coordinate {m}
    10.650000000000,         !- Vertex 1 Z-coordinate {m}
    15.800000000000,         !- Vertex 2 X-coordinate {m}
    0.275000000000,          !- Vertex 2 Y-coordinate {m}
    9.650000000000,          !- Vertex 2 Z-coordinate {m}
    15.800000000000,         !- Vertex 3 X-coordinate {m}
    0.675000000000,          !- Vertex 3 Y-coordinate {m}
    9.650000000000,          !- Vertex 3 Z-coordinate {m}
    15.800000000000,         !- Vertex 4 X-coordinate {m}
    0.675000000000,          !- Vertex 4 Y-coordinate {m}
    10.650000000000;         !- Vertex 4 Z-coordinate {m}

FenestrationSurface:Detailed,
    P4_W14 (WC),             !- Name
    Window,                  !- Surface Type
    Exterior Window,         !- Construction Name
    AFE411,                  !- Building Surface Name
    ,                        !- Outside Boundary Condition Object
    ,                        !- View Factor to Ground
    ,                        !- Frame and Divider Name
    ,                        !- Multiplier
    4,                       !- Number of Vertices
    16.100000000000,         !- Vertex 1 X-coordinate {m}
    0.950000000000,          !- Vertex 1 Y-coordinate {m}
    10.650000000000,         !- Vertex 1 Z-coordinate {m}
    16.100000000000,         !- Vertex 2 X-coordinate {m}
    0.950000000000,          !- Vertex 2 Y-coordinate {m}
    9.900000000000,          !- Vertex 2 Z-coordinate {m}
    16.850000000000,         !- Vertex 3 X-coordinate {m}
    0.950000000000,          !- Vertex 3 Y-coordinate {m}
    9.900000000000,          !- Vertex 3 Z-coordinate {m}
    16.850000000000,         !- Vertex 4 X-coordinate {m}
    0.950000000000,          !- Vertex 4 Y-coordinate {m}
    10.650000000000;         !- Vertex 4 Z-coordinate {m}

FenestrationSurface:Detailed,
    P5_W15 (Kitchen),        !- Name
    Window,                  !- Surface Type
    Exterior Window,         !- Construction Name
    44D498,                  !- Building Surface Name
    ,                        !- Outside Boundary Condition Object
    ,                        !- View Factor to Ground
    ,                        !- Frame and Divider Name
    ,                        !- Multiplier
    4,                       !- Number of Vertices
    15.800000000000,         !- Vertex 1 X-coordinate {m}
    0.275000000000,          !- Vertex 1 Y-coordinate {m}
    13.500000000000,         !- Vertex 1 Z-coordinate {m}
    15.800000000000,         !- Vertex 2 X-coordinate {m}
    0.275000000000,          !- Vertex 2 Y-coordinate {m}
    12.500000000000,         !- Vertex 2 Z-coordinate {m}
    15.800000000000,         !- Vertex 3 X-coordinate {m}
    0.675000000000,          !- Vertex 3 Y-coordinate {m}
    12.500000000000,         !- Vertex 3 Z-coordinate {m}
    15.800000000000,         !- Vertex 4 X-coordinate {m}
    0.675000000000,          !- Vertex 4 Y-coordinate {m}
    13.500000000000;         !- Vertex 4 Z-coordinate {m}

FenestrationSurface:Detailed,
    P5_W14 (WC),             !- Name
    Window,                  !- Surface Type
    Exterior Window,         !- Construction Name
    973ECF,                  !- Building Surface Name
    ,                        !- Outside Boundary Condition Object
    ,                        !- View Factor to Ground
    ,                        !- Frame and Divider Name
    ,                        !- Multiplier
    4,                       !- Number of Vertices
    16.100000000000,         !- Vertex 1 X-coordinate {m}
    0.950000000000,          !- Vertex 1 Y-coordinate {m}
    13.500000000000,         !- Vertex 1 Z-coordinate {m}
    16.100000000000,         !- Vertex 2 X-coordinate {m}
    0.950000000000,          !- Vertex 2 Y-coordinate {m}
    12.750000000000,         !- Vertex 2 Z-coordinate {m}
    16.850000000000,         !- Vertex 3 X-coordinate {m}
    0.950000000000,          !- Vertex 3 Y-coordinate {m}
    12.750000000000,         !- Vertex 3 Z-coordinate {m}
    16.850000000000,         !- Vertex 4 X-coordinate {m}
    0.950000000000,          !- Vertex 4 Y-coordinate {m}
    13.500000000000;         !- Vertex 4 Z-coordinate {m}


!-   ===========  ALL OBJECTS IN CLASS: INTERNALMASS ===========

InternalMass,
    Massa Termica Ap1p1,     !- Name
    Interior Wall,           !- Construction Name
    APTO01_P1,               !- Zone Name
    32.8;                    !- Surface Area {m2}

InternalMass,
    Massa Termica Ap2p1,     !- Name
    Interior Wall,           !- Construction Name
    APTO02_P1,               !- Zone Name
    32.8;                    !- Surface Area {m2}

InternalMass,
    Massa Termica Ap3p1,     !- Name
    Interior Wall,           !- Construction Name
    APTO03_P1,               !- Zone Name
    32.8;                    !- Surface Area {m2}

InternalMass,
    Massa Termica Ap4p1,     !- Name
    Interior Wall,           !- Construction Name
    APTO04_P1,               !- Zone Name
    32.8;                    !- Surface Area {m2}

InternalMass,
    Massa Termica Ap1p2,     !- Name
    Interior Wall,           !- Construction Name
    APTO01_P2,               !- Zone Name
    32.8;                    !- Surface Area {m2}

InternalMass,
    Massa Termica Ap2p2,     !- Name
    Interior Wall,           !- Construction Name
    APTO02_P2,               !- Zone Name
    32.8;                    !- Surface Area {m2}

InternalMass,
    Massa Termica Ap3p2,     !- Name
    Interior Wall,           !- Construction Name
    APTO03_P2,               !- Zone Name
    32.8;                    !- Surface Area {m2}

InternalMass,
    Massa Termica Ap4p2,     !- Name
    Interior Wall,           !- Construction Name
    APTO04_P2,               !- Zone Name
    32.8;                    !- Surface Area {m2}

InternalMass,
    Massa Termica Ap1p3,     !- Name
    Interior Wall,           !- Construction Name
    APTO01_P3,               !- Zone Name
    32.8;                    !- Surface Area {m2}

InternalMass,
    Massa Termica Ap2p3,     !- Name
    Interior Wall,           !- Construction Name
    APTO02_P3,               !- Zone Name
    32.8;                    !- Surface Area {m2}

InternalMass,
    Massa Termica Ap3p3,     !- Name
    Interior Wall,           !- Construction Name
    APTO03_P3,               !- Zone Name
    32.8;                    !- Surface Area {m2}

InternalMass,
    Massa Termica Ap4p3,     !- Name
    Interior Wall,           !- Construction Name
    APTO04_P3,               !- Zone Name
    32.8;                    !- Surface Area {m2}

InternalMass,
    Massa Termica Ap1p4,     !- Name
    Interior Wall,           !- Construction Name
    APTO01_P4,               !- Zone Name
    32.8;                    !- Surface Area {m2}

InternalMass,
    Massa Termica Ap2p4,     !- Name
    Interior Wall,           !- Construction Name
    APTO02_P4,               !- Zone Name
    32.8;                    !- Surface Area {m2}

InternalMass,
    Massa Termica Ap3p4,     !- Name
    Interior Wall,           !- Construction Name
    APTO03_P4,               !- Zone Name
    32.8;                    !- Surface Area {m2}

InternalMass,
    Massa Termica Ap4p4,     !- Name
    Interior Wall,           !- Construction Name
    APTO04_P4,               !- Zone Name
    32.8;                    !- Surface Area {m2}

InternalMass,
    Massa Termica Ap1p5,     !- Name
    Interior Wall,           !- Construction Name
    APTO01_P5,               !- Zone Name
    32.8;                    !- Surface Area {m2}

InternalMass,
    Massa Termica Ap2p5,     !- Name
    Interior Wall,           !- Construction Name
    APTO02_P5,               !- Zone Name
    32.8;                    !- Surface Area {m2}

InternalMass,
    Massa Termica Ap3p5,     !- Name
    Interior Wall,           !- Construction Name
    APTO03_P5,               !- Zone Name
    32.8;                    !- Surface Area {m2}

InternalMass,
    Massa Termica Ap4p5,     !- Name
    Interior Wall,           !- Construction Name
    APTO04_P5,               !- Zone Name
    32.8;                    !- Surface Area {m2}


!-   ===========  ALL OBJECTS IN CLASS: SHADING:BUILDING:DETAILED ===========

Shading:Building:Detailed,
    87D593,                  !- Name
    ,                        !- Transmittance Schedule Name
    4,                       !- Number of Vertices
    5.800000000000,          !- Vertex 1 X-coordinate {m}
    -3.600000000000,         !- Vertex 1 Y-coordinate {m}
    2.850000000000,          !- Vertex 1 Z-coordinate {m}
    5.800000000000,          !- Vertex 2 X-coordinate {m}
    -5.550000000000,         !- Vertex 2 Y-coordinate {m}
    2.850000000000,          !- Vertex 2 Z-coordinate {m}
    7.450000000000,          !- Vertex 3 X-coordinate {m}
    -5.550000000000,         !- Vertex 3 Y-coordinate {m}
    2.850000000000,          !- Vertex 3 Z-coordinate {m}
    7.450000000000,          !- Vertex 4 X-coordinate {m}
    -3.600000000000,         !- Vertex 4 Y-coordinate {m}
    2.850000000000;          !- Vertex 4 Z-coordinate {m}

Shading:Building:Detailed,
    B979EB,                  !- Name
    ,                        !- Transmittance Schedule Name
    4,                       !- Number of Vertices
    5.800000000000,          !- Vertex 1 X-coordinate {m}
    -3.600000000000,         !- Vertex 1 Y-coordinate {m}
    5.700000000000,          !- Vertex 1 Z-coordinate {m}
    5.800000000000,          !- Vertex 2 X-coordinate {m}
    -5.550000000000,         !- Vertex 2 Y-coordinate {m}
    5.700000000000,          !- Vertex 2 Z-coordinate {m}
    7.450000000000,          !- Vertex 3 X-coordinate {m}
    -5.550000000000,         !- Vertex 3 Y-coordinate {m}
    5.700000000000,          !- Vertex 3 Z-coordinate {m}
    7.450000000000,          !- Vertex 4 X-coordinate {m}
    -3.600000000000,         !- Vertex 4 Y-coordinate {m}
    5.700000000000;          !- Vertex 4 Z-coordinate {m}

Shading:Building:Detailed,
    2A873E,                  !- Name
    ,                        !- Transmittance Schedule Name
    4,                       !- Number of Vertices
    5.800000000000,          !- Vertex 1 X-coordinate {m}
    -3.600000000000,         !- Vertex 1 Y-coordinate {m}
    8.550000000000,          !- Vertex 1 Z-coordinate {m}
    5.800000000000,          !- Vertex 2 X-coordinate {m}
    -5.550000000000,         !- Vertex 2 Y-coordinate {m}
    8.550000000000,          !- Vertex 2 Z-coordinate {m}
    7.450000000000,          !- Vertex 3 X-coordinate {m}
    -5.550000000000,         !- Vertex 3 Y-coordinate {m}
    8.550000000000,          !- Vertex 3 Z-coordinate {m}
    7.450000000000,          !- Vertex 4 X-coordinate {m}
    -3.600000000000,         !- Vertex 4 Y-coordinate {m}
    8.550000000000;          !- Vertex 4 Z-coordinate {m}

Shading:Building:Detailed,
    F23929,                  !- Name
    ,                        !- Transmittance Schedule Name
    4,                       !- Number of Vertices
    5.800000000000,          !- Vertex 1 X-coordinate {m}
    -3.600000000000,         !- Vertex 1 Y-coordinate {m}
    11.400000000000,         !- Vertex 1 Z-coordinate {m}
    5.800000000000,          !- Vertex 2 X-coordinate {m}
    -5.550000000000,         !- Vertex 2 Y-coordinate {m}
    11.400000000000,         !- Vertex 2 Z-coordinate {m}
    7.450000000000,          !- Vertex 3 X-coordinate {m}
    -5.550000000000,         !- Vertex 3 Y-coordinate {m}
    11.400000000000,         !- Vertex 3 Z-coordinate {m}
    7.450000000000,          !- Vertex 4 X-coordinate {m}
    -3.600000000000,         !- Vertex 4 Y-coordinate {m}
    11.400000000000;         !- Vertex 4 Z-coordinate {m}

Shading:Building:Detailed,
    93BDA1,                  !- Name
    ,                        !- Transmittance Schedule Name
    4,                       !- Number of Vertices
    5.800000000000,          !- Vertex 1 X-coordinate {m}
    -3.600000000000,         !- Vertex 1 Y-coordinate {m}
    14.250000000000,         !- Vertex 1 Z-coordinate {m}
    5.800000000000,          !- Vertex 2 X-coordinate {m}
    -5.550000000000,         !- Vertex 2 Y-coordinate {m}
    14.250000000000,         !- Vertex 2 Z-coordinate {m}
    7.450000000000,          !- Vertex 3 X-coordinate {m}
    -5.550000000000,         !- Vertex 3 Y-coordinate {m}
    14.250000000000,         !- Vertex 3 Z-coordinate {m}
    7.450000000000,          !- Vertex 4 X-coordinate {m}
    -3.600000000000,         !- Vertex 4 Y-coordinate {m}
    14.250000000000;         !- Vertex 4 Z-coordinate {m}

Shading:Building:Detailed,
    AB48EF,                  !- Name
    ,                        !- Transmittance Schedule Name
    4,                       !- Number of Vertices
    9.700000000000,          !- Vertex 1 X-coordinate {m}
    -3.600000000000,         !- Vertex 1 Y-coordinate {m}
    5.700000000000,          !- Vertex 1 Z-coordinate {m}
    9.700000000000,          !- Vertex 2 X-coordinate {m}
    -5.550000000000,         !- Vertex 2 Y-coordinate {m}
    5.700000000000,          !- Vertex 2 Z-coordinate {m}
    11.350000000000,         !- Vertex 3 X-coordinate {m}
    -5.550000000000,         !- Vertex 3 Y-coordinate {m}
    5.700000000000,          !- Vertex 3 Z-coordinate {m}
    11.350000000000,         !- Vertex 4 X-coordinate {m}
    -3.600000000000,         !- Vertex 4 Y-coordinate {m}
    5.700000000000;          !- Vertex 4 Z-coordinate {m}

Shading:Building:Detailed,
    ECCA8A,                  !- Name
    ,                        !- Transmittance Schedule Name
    4,                       !- Number of Vertices
    9.700000000000,          !- Vertex 1 X-coordinate {m}
    -3.600000000000,         !- Vertex 1 Y-coordinate {m}
    14.250000000000,         !- Vertex 1 Z-coordinate {m}
    9.700000000000,          !- Vertex 2 X-coordinate {m}
    -5.550000000000,         !- Vertex 2 Y-coordinate {m}
    14.250000000000,         !- Vertex 2 Z-coordinate {m}
    11.350000000000,         !- Vertex 3 X-coordinate {m}
    -5.550000000000,         !- Vertex 3 Y-coordinate {m}
    14.250000000000,         !- Vertex 3 Z-coordinate {m}
    11.350000000000,         !- Vertex 4 X-coordinate {m}
    -3.600000000000,         !- Vertex 4 Y-coordinate {m}
    14.250000000000;         !- Vertex 4 Z-coordinate {m}

Shading:Building:Detailed,
    234472,                  !- Name
    ,                        !- Transmittance Schedule Name
    4,                       !- Number of Vertices
    9.700000000000,          !- Vertex 1 X-coordinate {m}
    -3.600000000000,         !- Vertex 1 Y-coordinate {m}
    11.400000000000,         !- Vertex 1 Z-coordinate {m}
    9.700000000000,          !- Vertex 2 X-coordinate {m}
    -5.550000000000,         !- Vertex 2 Y-coordinate {m}
    11.400000000000,         !- Vertex 2 Z-coordinate {m}
    11.350000000000,         !- Vertex 3 X-coordinate {m}
    -5.550000000000,         !- Vertex 3 Y-coordinate {m}
    11.400000000000,         !- Vertex 3 Z-coordinate {m}
    11.350000000000,         !- Vertex 4 X-coordinate {m}
    -3.600000000000,         !- Vertex 4 Y-coordinate {m}
    11.400000000000;         !- Vertex 4 Z-coordinate {m}

Shading:Building:Detailed,
    4229D7,                  !- Name
    ,                        !- Transmittance Schedule Name
    4,                       !- Number of Vertices
    9.700000000000,          !- Vertex 1 X-coordinate {m}
    -3.600000000000,         !- Vertex 1 Y-coordinate {m}
    8.550000000000,          !- Vertex 1 Z-coordinate {m}
    9.700000000000,          !- Vertex 2 X-coordinate {m}
    -5.550000000000,         !- Vertex 2 Y-coordinate {m}
    8.550000000000,          !- Vertex 2 Z-coordinate {m}
    11.350000000000,         !- Vertex 3 X-coordinate {m}
    -5.550000000000,         !- Vertex 3 Y-coordinate {m}
    8.550000000000,          !- Vertex 3 Z-coordinate {m}
    11.350000000000,         !- Vertex 4 X-coordinate {m}
    -3.600000000000,         !- Vertex 4 Y-coordinate {m}
    8.550000000000;          !- Vertex 4 Z-coordinate {m}

Shading:Building:Detailed,
    7DAD4C,                  !- Name
    ,                        !- Transmittance Schedule Name
    4,                       !- Number of Vertices
    9.700000000000,          !- Vertex 1 X-coordinate {m}
    -3.600000000000,         !- Vertex 1 Y-coordinate {m}
    2.850000000000,          !- Vertex 1 Z-coordinate {m}
    9.700000000000,          !- Vertex 2 X-coordinate {m}
    -5.550000000000,         !- Vertex 2 Y-coordinate {m}
    2.850000000000,          !- Vertex 2 Z-coordinate {m}
    11.350000000000,         !- Vertex 3 X-coordinate {m}
    -5.550000000000,         !- Vertex 3 Y-coordinate {m}
    2.850000000000,          !- Vertex 3 Z-coordinate {m}
    11.350000000000,         !- Vertex 4 X-coordinate {m}
    -3.600000000000,         !- Vertex 4 Y-coordinate {m}
    2.850000000000;          !- Vertex 4 Z-coordinate {m}

Shading:Building:Detailed,
    8BA3E5,                  !- Name
    ,                        !- Transmittance Schedule Name
    4,                       !- Number of Vertices
    9.700000000000,          !- Vertex 1 X-coordinate {m}
    5.550000000000,          !- Vertex 1 Y-coordinate {m}
    14.250000000000,         !- Vertex 1 Z-coordinate {m}
    9.700000000000,          !- Vertex 2 X-coordinate {m}
    3.600000000000,          !- Vertex 2 Y-coordinate {m}
    14.250000000000,         !- Vertex 2 Z-coordinate {m}
    11.350000000000,         !- Vertex 3 X-coordinate {m}
    3.600000000000,          !- Vertex 3 Y-coordinate {m}
    14.250000000000,         !- Vertex 3 Z-coordinate {m}
    11.350000000000,         !- Vertex 4 X-coordinate {m}
    5.550000000000,          !- Vertex 4 Y-coordinate {m}
    14.250000000000;         !- Vertex 4 Z-coordinate {m}

Shading:Building:Detailed,
    BA5F7C,                  !- Name
    ,                        !- Transmittance Schedule Name
    4,                       !- Number of Vertices
    9.700000000000,          !- Vertex 1 X-coordinate {m}
    5.550000000000,          !- Vertex 1 Y-coordinate {m}
    8.550000000000,          !- Vertex 1 Z-coordinate {m}
    9.700000000000,          !- Vertex 2 X-coordinate {m}
    3.600000000000,          !- Vertex 2 Y-coordinate {m}
    8.550000000000,          !- Vertex 2 Z-coordinate {m}
    11.350000000000,         !- Vertex 3 X-coordinate {m}
    3.600000000000,          !- Vertex 3 Y-coordinate {m}
    8.550000000000,          !- Vertex 3 Z-coordinate {m}
    11.350000000000,         !- Vertex 4 X-coordinate {m}
    5.550000000000,          !- Vertex 4 Y-coordinate {m}
    8.550000000000;          !- Vertex 4 Z-coordinate {m}

Shading:Building:Detailed,
    D3B1E6,                  !- Name
    ,                        !- Transmittance Schedule Name
    4,                       !- Number of Vertices
    9.700000000000,          !- Vertex 1 X-coordinate {m}
    5.550000000000,          !- Vertex 1 Y-coordinate {m}
    5.700000000000,          !- Vertex 1 Z-coordinate {m}
    9.700000000000,          !- Vertex 2 X-coordinate {m}
    3.600000000000,          !- Vertex 2 Y-coordinate {m}
    5.700000000000,          !- Vertex 2 Z-coordinate {m}
    11.350000000000,         !- Vertex 3 X-coordinate {m}
    3.600000000000,          !- Vertex 3 Y-coordinate {m}
    5.700000000000,          !- Vertex 3 Z-coordinate {m}
    11.350000000000,         !- Vertex 4 X-coordinate {m}
    5.550000000000,          !- Vertex 4 Y-coordinate {m}
    5.700000000000;          !- Vertex 4 Z-coordinate {m}

Shading:Building:Detailed,
    A7AF6F,                  !- Name
    ,                        !- Transmittance Schedule Name
    4,                       !- Number of Vertices
    9.700000000000,          !- Vertex 1 X-coordinate {m}
    5.550000000000,          !- Vertex 1 Y-coordinate {m}
    2.850000000000,          !- Vertex 1 Z-coordinate {m}
    9.700000000000,          !- Vertex 2 X-coordinate {m}
    3.600000000000,          !- Vertex 2 Y-coordinate {m}
    2.850000000000,          !- Vertex 2 Z-coordinate {m}
    11.350000000000,         !- Vertex 3 X-coordinate {m}
    3.600000000000,          !- Vertex 3 Y-coordinate {m}
    2.850000000000,          !- Vertex 3 Z-coordinate {m}
    11.350000000000,         !- Vertex 4 X-coordinate {m}
    5.550000000000,          !- Vertex 4 Y-coordinate {m}
    2.850000000000;          !- Vertex 4 Z-coordinate {m}

Shading:Building:Detailed,
    2C89D3,                  !- Name
    ,                        !- Transmittance Schedule Name
    4,                       !- Number of Vertices
    5.800000000000,          !- Vertex 1 X-coordinate {m}
    5.550000000000,          !- Vertex 1 Y-coordinate {m}
    2.850000000000,          !- Vertex 1 Z-coordinate {m}
    5.800000000000,          !- Vertex 2 X-coordinate {m}
    3.600000000000,          !- Vertex 2 Y-coordinate {m}
    2.850000000000,          !- Vertex 2 Z-coordinate {m}
    7.450000000000,          !- Vertex 3 X-coordinate {m}
    3.600000000000,          !- Vertex 3 Y-coordinate {m}
    2.850000000000,          !- Vertex 3 Z-coordinate {m}
    7.450000000000,          !- Vertex 4 X-coordinate {m}
    5.550000000000,          !- Vertex 4 Y-coordinate {m}
    2.850000000000;          !- Vertex 4 Z-coordinate {m}

Shading:Building:Detailed,
    4CD46C,                  !- Name
    ,                        !- Transmittance Schedule Name
    4,                       !- Number of Vertices
    5.800000000000,          !- Vertex 1 X-coordinate {m}
    5.550000000000,          !- Vertex 1 Y-coordinate {m}
    11.400000000000,         !- Vertex 1 Z-coordinate {m}
    5.800000000000,          !- Vertex 2 X-coordinate {m}
    3.600000000000,          !- Vertex 2 Y-coordinate {m}
    11.400000000000,         !- Vertex 2 Z-coordinate {m}
    7.450000000000,          !- Vertex 3 X-coordinate {m}
    3.600000000000,          !- Vertex 3 Y-coordinate {m}
    11.400000000000,         !- Vertex 3 Z-coordinate {m}
    7.450000000000,          !- Vertex 4 X-coordinate {m}
    5.550000000000,          !- Vertex 4 Y-coordinate {m}
    11.400000000000;         !- Vertex 4 Z-coordinate {m}

Shading:Building:Detailed,
    DB3C29,                  !- Name
    ,                        !- Transmittance Schedule Name
    4,                       !- Number of Vertices
    5.800000000000,          !- Vertex 1 X-coordinate {m}
    5.550000000000,          !- Vertex 1 Y-coordinate {m}
    14.250000000000,         !- Vertex 1 Z-coordinate {m}
    5.800000000000,          !- Vertex 2 X-coordinate {m}
    3.600000000000,          !- Vertex 2 Y-coordinate {m}
    14.250000000000,         !- Vertex 2 Z-coordinate {m}
    7.450000000000,          !- Vertex 3 X-coordinate {m}
    3.600000000000,          !- Vertex 3 Y-coordinate {m}
    14.250000000000,         !- Vertex 3 Z-coordinate {m}
    7.450000000000,          !- Vertex 4 X-coordinate {m}
    5.550000000000,          !- Vertex 4 Y-coordinate {m}
    14.250000000000;         !- Vertex 4 Z-coordinate {m}

Shading:Building:Detailed,
    D95C88,                  !- Name
    ,                        !- Transmittance Schedule Name
    4,                       !- Number of Vertices
    9.700000000000,          !- Vertex 1 X-coordinate {m}
    5.550000000000,          !- Vertex 1 Y-coordinate {m}
    11.400000000000,         !- Vertex 1 Z-coordinate {m}
    9.700000000000,          !- Vertex 2 X-coordinate {m}
    3.600000000000,          !- Vertex 2 Y-coordinate {m}
    11.400000000000,         !- Vertex 2 Z-coordinate {m}
    11.350000000000,         !- Vertex 3 X-coordinate {m}
    3.600000000000,          !- Vertex 3 Y-coordinate {m}
    11.400000000000,         !- Vertex 3 Z-coordinate {m}
    11.350000000000,         !- Vertex 4 X-coordinate {m}
    5.550000000000,          !- Vertex 4 Y-coordinate {m}
    11.400000000000;         !- Vertex 4 Z-coordinate {m}

Shading:Building:Detailed,
    B3D312,                  !- Name
    ,                        !- Transmittance Schedule Name
    4,                       !- Number of Vertices
    5.800000000000,          !- Vertex 1 X-coordinate {m}
    5.550000000000,          !- Vertex 1 Y-coordinate {m}
    8.550000000000,          !- Vertex 1 Z-coordinate {m}
    5.800000000000,          !- Vertex 2 X-coordinate {m}
    3.600000000000,          !- Vertex 2 Y-coordinate {m}
    8.550000000000,          !- Vertex 2 Z-coordinate {m}
    7.450000000000,          !- Vertex 3 X-coordinate {m}
    3.600000000000,          !- Vertex 3 Y-coordinate {m}
    8.550000000000,          !- Vertex 3 Z-coordinate {m}
    7.450000000000,          !- Vertex 4 X-coordinate {m}
    5.550000000000,          !- Vertex 4 Y-coordinate {m}
    8.550000000000;          !- Vertex 4 Z-coordinate {m}

Shading:Building:Detailed,
    8A8AEF,                  !- Name
    ,                        !- Transmittance Schedule Name
    4,                       !- Number of Vertices
    5.800000000000,          !- Vertex 1 X-coordinate {m}
    5.550000000000,          !- Vertex 1 Y-coordinate {m}
    5.700000000000,          !- Vertex 1 Z-coordinate {m}
    5.800000000000,          !- Vertex 2 X-coordinate {m}
    3.600000000000,          !- Vertex 2 Y-coordinate {m}
    5.700000000000,          !- Vertex 2 Z-coordinate {m}
    7.450000000000,          !- Vertex 3 X-coordinate {m}
    3.600000000000,          !- Vertex 3 Y-coordinate {m}
    5.700000000000,          !- Vertex 3 Z-coordinate {m}
    7.450000000000,          !- Vertex 4 X-coordinate {m}
    5.550000000000,          !- Vertex 4 Y-coordinate {m}
    5.700000000000;          !- Vertex 4 Z-coordinate {m}

Shading:Building:Detailed,
    143049,                  !- Name
    ,                        !- Transmittance Schedule Name
    4,                       !- Number of Vertices
    8.000000000000,          !- Vertex 1 X-coordinate {m}
    -4.600000000000,         !- Vertex 1 Y-coordinate {m}
    14.250000000000,         !- Vertex 1 Z-coordinate {m}
    8.000000000000,          !- Vertex 2 X-coordinate {m}
    -4.600000000000,         !- Vertex 2 Y-coordinate {m}
    0.000000000000,          !- Vertex 2 Z-coordinate {m}
    8.000000000000,          !- Vertex 3 X-coordinate {m}
    -3.600000000000,         !- Vertex 3 Y-coordinate {m}
    0.000000000000,          !- Vertex 3 Z-coordinate {m}
    8.000000000000,          !- Vertex 4 X-coordinate {m}
    -3.600000000000,         !- Vertex 4 Y-coordinate {m}
    14.250000000000;         !- Vertex 4 Z-coordinate {m}

Shading:Building:Detailed,
    4A503A,                  !- Name
    ,                        !- Transmittance Schedule Name
    4,                       !- Number of Vertices
    7.450000000000,          !- Vertex 1 X-coordinate {m}
    -4.600000000000,         !- Vertex 1 Y-coordinate {m}
    14.250000000000,         !- Vertex 1 Z-coordinate {m}
    7.450000000000,          !- Vertex 2 X-coordinate {m}
    -4.600000000000,         !- Vertex 2 Y-coordinate {m}
    0.000000000000,          !- Vertex 2 Z-coordinate {m}
    8.000000000000,          !- Vertex 3 X-coordinate {m}
    -4.600000000000,         !- Vertex 3 Y-coordinate {m}
    0.000000000000,          !- Vertex 3 Z-coordinate {m}
    8.000000000000,          !- Vertex 4 X-coordinate {m}
    -4.600000000000,         !- Vertex 4 Y-coordinate {m}
    14.250000000000;         !- Vertex 4 Z-coordinate {m}

Shading:Building:Detailed,
    C2A50A,                  !- Name
    ,                        !- Transmittance Schedule Name
    4,                       !- Number of Vertices
    9.150000000000,          !- Vertex 1 X-coordinate {m}
    -4.600000000000,         !- Vertex 1 Y-coordinate {m}
    14.250000000000,         !- Vertex 1 Z-coordinate {m}
    9.150000000000,          !- Vertex 2 X-coordinate {m}
    -4.600000000000,         !- Vertex 2 Y-coordinate {m}
    0.000000000000,          !- Vertex 2 Z-coordinate {m}
    9.700000000000,          !- Vertex 3 X-coordinate {m}
    -4.600000000000,         !- Vertex 3 Y-coordinate {m}
    0.000000000000,          !- Vertex 3 Z-coordinate {m}
    9.700000000000,          !- Vertex 4 X-coordinate {m}
    -4.600000000000,         !- Vertex 4 Y-coordinate {m}
    14.250000000000;         !- Vertex 4 Z-coordinate {m}

Shading:Building:Detailed,
    B6A7E1,                  !- Name
    ,                        !- Transmittance Schedule Name
    4,                       !- Number of Vertices
    9.700000000000,          !- Vertex 1 X-coordinate {m}
    -4.600000000000,         !- Vertex 1 Y-coordinate {m}
    14.250000000000,         !- Vertex 1 Z-coordinate {m}
    9.700000000000,          !- Vertex 2 X-coordinate {m}
    -4.600000000000,         !- Vertex 2 Y-coordinate {m}
    0.000000000000,          !- Vertex 2 Z-coordinate {m}
    9.700000000000,          !- Vertex 3 X-coordinate {m}
    -3.600000000000,         !- Vertex 3 Y-coordinate {m}
    0.000000000000,          !- Vertex 3 Z-coordinate {m}
    9.700000000000,          !- Vertex 4 X-coordinate {m}
    -3.600000000000,         !- Vertex 4 Y-coordinate {m}
    14.250000000000;         !- Vertex 4 Z-coordinate {m}

Shading:Building:Detailed,
    593431,                  !- Name
    ,                        !- Transmittance Schedule Name
    4,                       !- Number of Vertices
    9.150000000000,          !- Vertex 1 X-coordinate {m}
    -3.600000000000,         !- Vertex 1 Y-coordinate {m}
    14.250000000000,         !- Vertex 1 Z-coordinate {m}
    9.150000000000,          !- Vertex 2 X-coordinate {m}
    -3.600000000000,         !- Vertex 2 Y-coordinate {m}
    0.000000000000,          !- Vertex 2 Z-coordinate {m}
    9.150000000000,          !- Vertex 3 X-coordinate {m}
    -4.600000000000,         !- Vertex 3 Y-coordinate {m}
    0.000000000000,          !- Vertex 3 Z-coordinate {m}
    9.150000000000,          !- Vertex 4 X-coordinate {m}
    -4.600000000000,         !- Vertex 4 Y-coordinate {m}
    14.250000000000;         !- Vertex 4 Z-coordinate {m}

Shading:Building:Detailed,
    92B6C1,                  !- Name
    ,                        !- Transmittance Schedule Name
    4,                       !- Number of Vertices
    9.700000000000,          !- Vertex 1 X-coordinate {m}
    4.600000000000,          !- Vertex 1 Y-coordinate {m}
    14.250000000000,         !- Vertex 1 Z-coordinate {m}
    9.700000000000,          !- Vertex 2 X-coordinate {m}
    4.600000000000,          !- Vertex 2 Y-coordinate {m}
    0.000000000000,          !- Vertex 2 Z-coordinate {m}
    9.150000000000,          !- Vertex 3 X-coordinate {m}
    4.600000000000,          !- Vertex 3 Y-coordinate {m}
    0.000000000000,          !- Vertex 3 Z-coordinate {m}
    9.150000000000,          !- Vertex 4 X-coordinate {m}
    4.600000000000,          !- Vertex 4 Y-coordinate {m}
    14.250000000000;         !- Vertex 4 Z-coordinate {m}

Shading:Building:Detailed,
    559FD7,                  !- Name
    ,                        !- Transmittance Schedule Name
    4,                       !- Number of Vertices
    9.150000000000,          !- Vertex 1 X-coordinate {m}
    4.600000000000,          !- Vertex 1 Y-coordinate {m}
    14.250000000000,         !- Vertex 1 Z-coordinate {m}
    9.150000000000,          !- Vertex 2 X-coordinate {m}
    4.600000000000,          !- Vertex 2 Y-coordinate {m}
    0.000000000000,          !- Vertex 2 Z-coordinate {m}
    9.150000000000,          !- Vertex 3 X-coordinate {m}
    3.600000000000,          !- Vertex 3 Y-coordinate {m}
    0.000000000000,          !- Vertex 3 Z-coordinate {m}
    9.150000000000,          !- Vertex 4 X-coordinate {m}
    3.600000000000,          !- Vertex 4 Y-coordinate {m}
    14.250000000000;         !- Vertex 4 Z-coordinate {m}

Shading:Building:Detailed,
    65A49D,                  !- Name
    ,                        !- Transmittance Schedule Name
    4,                       !- Number of Vertices
    8.000000000000,          !- Vertex 1 X-coordinate {m}
    3.600000000000,          !- Vertex 1 Y-coordinate {m}
    14.250000000000,         !- Vertex 1 Z-coordinate {m}
    8.000000000000,          !- Vertex 2 X-coordinate {m}
    3.600000000000,          !- Vertex 2 Y-coordinate {m}
    0.000000000000,          !- Vertex 2 Z-coordinate {m}
    8.000000000000,          !- Vertex 3 X-coordinate {m}
    4.600000000000,          !- Vertex 3 Y-coordinate {m}
    0.000000000000,          !- Vertex 3 Z-coordinate {m}
    8.000000000000,          !- Vertex 4 X-coordinate {m}
    4.600000000000,          !- Vertex 4 Y-coordinate {m}
    14.250000000000;         !- Vertex 4 Z-coordinate {m}

Shading:Building:Detailed,
    AE04B2,                  !- Name
    ,                        !- Transmittance Schedule Name
    4,                       !- Number of Vertices
    8.000000000000,          !- Vertex 1 X-coordinate {m}
    4.600000000000,          !- Vertex 1 Y-coordinate {m}
    14.250000000000,         !- Vertex 1 Z-coordinate {m}
    8.000000000000,          !- Vertex 2 X-coordinate {m}
    4.600000000000,          !- Vertex 2 Y-coordinate {m}
    0.000000000000,          !- Vertex 2 Z-coordinate {m}
    7.450000000000,          !- Vertex 3 X-coordinate {m}
    4.600000000000,          !- Vertex 3 Y-coordinate {m}
    0.000000000000,          !- Vertex 3 Z-coordinate {m}
    7.450000000000,          !- Vertex 4 X-coordinate {m}
    4.600000000000,          !- Vertex 4 Y-coordinate {m}
    14.250000000000;         !- Vertex 4 Z-coordinate {m}

Shading:Building:Detailed,
    65401B,                  !- Name
    ,                        !- Transmittance Schedule Name
    4,                       !- Number of Vertices
    17.150000000000,         !- Vertex 1 X-coordinate {m}
    6.750000000000,          !- Vertex 1 Y-coordinate {m}
    15.450000000000,         !- Vertex 1 Z-coordinate {m}
    17.150000000000,         !- Vertex 2 X-coordinate {m}
    6.750000000000,          !- Vertex 2 Y-coordinate {m}
    14.250000000000,         !- Vertex 2 Z-coordinate {m}
    11.350000000000,         !- Vertex 3 X-coordinate {m}
    6.750000000000,          !- Vertex 3 Y-coordinate {m}
    14.250000000000,         !- Vertex 3 Z-coordinate {m}
    11.350000000000,         !- Vertex 4 X-coordinate {m}
    6.750000000000,          !- Vertex 4 Y-coordinate {m}
    15.450000000000;         !- Vertex 4 Z-coordinate {m}

Shading:Building:Detailed,
    CEE73F,                  !- Name
    ,                        !- Transmittance Schedule Name
    4,                       !- Number of Vertices
    11.350000000000,         !- Vertex 1 X-coordinate {m}
    6.750000000000,          !- Vertex 1 Y-coordinate {m}
    15.450000000000,         !- Vertex 1 Z-coordinate {m}
    11.350000000000,         !- Vertex 2 X-coordinate {m}
    6.750000000000,          !- Vertex 2 Y-coordinate {m}
    14.250000000000,         !- Vertex 2 Z-coordinate {m}
    11.350000000000,         !- Vertex 3 X-coordinate {m}
    5.550000000000,          !- Vertex 3 Y-coordinate {m}
    14.250000000000,         !- Vertex 3 Z-coordinate {m}
    11.350000000000,         !- Vertex 4 X-coordinate {m}
    5.550000000000,          !- Vertex 4 Y-coordinate {m}
    15.450000000000;         !- Vertex 4 Z-coordinate {m}

Shading:Building:Detailed,
    D2A5A1,                  !- Name
    ,                        !- Transmittance Schedule Name
    4,                       !- Number of Vertices
    11.350000000000,         !- Vertex 1 X-coordinate {m}
    5.550000000000,          !- Vertex 1 Y-coordinate {m}
    15.450000000000,         !- Vertex 1 Z-coordinate {m}
    11.350000000000,         !- Vertex 2 X-coordinate {m}
    5.550000000000,          !- Vertex 2 Y-coordinate {m}
    14.250000000000,         !- Vertex 2 Z-coordinate {m}
    9.700000000000,          !- Vertex 3 X-coordinate {m}
    5.550000000000,          !- Vertex 3 Y-coordinate {m}
    14.250000000000,         !- Vertex 3 Z-coordinate {m}
    9.700000000000,          !- Vertex 4 X-coordinate {m}
    5.550000000000,          !- Vertex 4 Y-coordinate {m}
    15.450000000000;         !- Vertex 4 Z-coordinate {m}

Shading:Building:Detailed,
    475349,                  !- Name
    ,                        !- Transmittance Schedule Name
    4,                       !- Number of Vertices
    9.700000000000,          !- Vertex 1 X-coordinate {m}
    5.550000000000,          !- Vertex 1 Y-coordinate {m}
    15.450000000000,         !- Vertex 1 Z-coordinate {m}
    9.700000000000,          !- Vertex 2 X-coordinate {m}
    5.550000000000,          !- Vertex 2 Y-coordinate {m}
    14.250000000000,         !- Vertex 2 Z-coordinate {m}
    9.700000000000,          !- Vertex 3 X-coordinate {m}
    4.600000000000,          !- Vertex 3 Y-coordinate {m}
    14.250000000000,         !- Vertex 3 Z-coordinate {m}
    9.700000000000,          !- Vertex 4 X-coordinate {m}
    4.600000000000,          !- Vertex 4 Y-coordinate {m}
    15.450000000000;         !- Vertex 4 Z-coordinate {m}

Shading:Building:Detailed,
    68336B,                  !- Name
    ,                        !- Transmittance Schedule Name
    4,                       !- Number of Vertices
    9.150000000000,          !- Vertex 1 X-coordinate {m}
    4.600000000000,          !- Vertex 1 Y-coordinate {m}
    15.450000000000,         !- Vertex 1 Z-coordinate {m}
    9.150000000000,          !- Vertex 2 X-coordinate {m}
    4.600000000000,          !- Vertex 2 Y-coordinate {m}
    14.250000000000,         !- Vertex 2 Z-coordinate {m}
    9.150000000000,          !- Vertex 3 X-coordinate {m}
    3.600000000000,          !- Vertex 3 Y-coordinate {m}
    14.250000000000,         !- Vertex 3 Z-coordinate {m}
    9.150000000000,          !- Vertex 4 X-coordinate {m}
    3.600000000000,          !- Vertex 4 Y-coordinate {m}
    15.450000000000;         !- Vertex 4 Z-coordinate {m}

Shading:Building:Detailed,
    1C7B48,                  !- Name
    ,                        !- Transmittance Schedule Name
    4,                       !- Number of Vertices
    9.700000000000,          !- Vertex 1 X-coordinate {m}
    4.600000000000,          !- Vertex 1 Y-coordinate {m}
    15.450000000000,         !- Vertex 1 Z-coordinate {m}
    9.700000000000,          !- Vertex 2 X-coordinate {m}
    4.600000000000,          !- Vertex 2 Y-coordinate {m}
    14.250000000000,         !- Vertex 2 Z-coordinate {m}
    9.150000000000,          !- Vertex 3 X-coordinate {m}
    4.600000000000,          !- Vertex 3 Y-coordinate {m}
    14.250000000000,         !- Vertex 3 Z-coordinate {m}
    9.150000000000,          !- Vertex 4 X-coordinate {m}
    4.600000000000,          !- Vertex 4 Y-coordinate {m}
    15.450000000000;         !- Vertex 4 Z-coordinate {m}

Shading:Building:Detailed,
    2BC91D,                  !- Name
    ,                        !- Transmittance Schedule Name
    4,                       !- Number of Vertices
    9.150000000000,          !- Vertex 1 X-coordinate {m}
    3.600000000000,          !- Vertex 1 Y-coordinate {m}
    15.450000000000,         !- Vertex 1 Z-coordinate {m}
    9.150000000000,          !- Vertex 2 X-coordinate {m}
    3.600000000000,          !- Vertex 2 Y-coordinate {m}
    14.250000000000,         !- Vertex 2 Z-coordinate {m}
    8.000000000000,          !- Vertex 3 X-coordinate {m}
    3.600000000000,          !- Vertex 3 Y-coordinate {m}
    14.250000000000,         !- Vertex 3 Z-coordinate {m}
    8.000000000000,          !- Vertex 4 X-coordinate {m}
    3.600000000000,          !- Vertex 4 Y-coordinate {m}
    15.450000000000;         !- Vertex 4 Z-coordinate {m}

Shading:Building:Detailed,
    DDD705,                  !- Name
    ,                        !- Transmittance Schedule Name
    4,                       !- Number of Vertices
    8.000000000000,          !- Vertex 1 X-coordinate {m}
    3.600000000000,          !- Vertex 1 Y-coordinate {m}
    15.450000000000,         !- Vertex 1 Z-coordinate {m}
    8.000000000000,          !- Vertex 2 X-coordinate {m}
    3.600000000000,          !- Vertex 2 Y-coordinate {m}
    14.250000000000,         !- Vertex 2 Z-coordinate {m}
    8.000000000000,          !- Vertex 3 X-coordinate {m}
    4.600000000000,          !- Vertex 3 Y-coordinate {m}
    14.250000000000,         !- Vertex 3 Z-coordinate {m}
    8.000000000000,          !- Vertex 4 X-coordinate {m}
    4.600000000000,          !- Vertex 4 Y-coordinate {m}
    15.450000000000;         !- Vertex 4 Z-coordinate {m}

Shading:Building:Detailed,
    C91F1B,                  !- Name
    ,                        !- Transmittance Schedule Name
    4,                       !- Number of Vertices
    8.000000000000,          !- Vertex 1 X-coordinate {m}
    4.600000000000,          !- Vertex 1 Y-coordinate {m}
    15.450000000000,         !- Vertex 1 Z-coordinate {m}
    8.000000000000,          !- Vertex 2 X-coordinate {m}
    4.600000000000,          !- Vertex 2 Y-coordinate {m}
    14.250000000000,         !- Vertex 2 Z-coordinate {m}
    7.450000000000,          !- Vertex 3 X-coordinate {m}
    4.600000000000,          !- Vertex 3 Y-coordinate {m}
    14.250000000000,         !- Vertex 3 Z-coordinate {m}
    7.450000000000,          !- Vertex 4 X-coordinate {m}
    4.600000000000,          !- Vertex 4 Y-coordinate {m}
    15.450000000000;         !- Vertex 4 Z-coordinate {m}

Shading:Building:Detailed,
    F33D9F,                  !- Name
    ,                        !- Transmittance Schedule Name
    4,                       !- Number of Vertices
    7.450000000000,          !- Vertex 1 X-coordinate {m}
    4.600000000000,          !- Vertex 1 Y-coordinate {m}
    15.450000000000,         !- Vertex 1 Z-coordinate {m}
    7.450000000000,          !- Vertex 2 X-coordinate {m}
    4.600000000000,          !- Vertex 2 Y-coordinate {m}
    14.250000000000,         !- Vertex 2 Z-coordinate {m}
    7.450000000000,          !- Vertex 3 X-coordinate {m}
    5.550000000000,          !- Vertex 3 Y-coordinate {m}
    14.250000000000,         !- Vertex 3 Z-coordinate {m}
    7.450000000000,          !- Vertex 4 X-coordinate {m}
    5.550000000000,          !- Vertex 4 Y-coordinate {m}
    15.450000000000;         !- Vertex 4 Z-coordinate {m}

Shading:Building:Detailed,
    A88A0E,                  !- Name
    ,                        !- Transmittance Schedule Name
    4,                       !- Number of Vertices
    7.450000000000,          !- Vertex 1 X-coordinate {m}
    5.550000000000,          !- Vertex 1 Y-coordinate {m}
    15.450000000000,         !- Vertex 1 Z-coordinate {m}
    7.450000000000,          !- Vertex 2 X-coordinate {m}
    5.550000000000,          !- Vertex 2 Y-coordinate {m}
    14.250000000000,         !- Vertex 2 Z-coordinate {m}
    5.800000000000,          !- Vertex 3 X-coordinate {m}
    5.550000000000,          !- Vertex 3 Y-coordinate {m}
    14.250000000000,         !- Vertex 3 Z-coordinate {m}
    5.800000000000,          !- Vertex 4 X-coordinate {m}
    5.550000000000,          !- Vertex 4 Y-coordinate {m}
    15.450000000000;         !- Vertex 4 Z-coordinate {m}

Shading:Building:Detailed,
    57AABD,                  !- Name
    ,                        !- Transmittance Schedule Name
    4,                       !- Number of Vertices
    5.800000000000,          !- Vertex 1 X-coordinate {m}
    5.550000000000,          !- Vertex 1 Y-coordinate {m}
    15.450000000000,         !- Vertex 1 Z-coordinate {m}
    5.800000000000,          !- Vertex 2 X-coordinate {m}
    5.550000000000,          !- Vertex 2 Y-coordinate {m}
    14.250000000000,         !- Vertex 2 Z-coordinate {m}
    5.800000000000,          !- Vertex 3 X-coordinate {m}
    6.750000000000,          !- Vertex 3 Y-coordinate {m}
    14.250000000000,         !- Vertex 3 Z-coordinate {m}
    5.800000000000,          !- Vertex 4 X-coordinate {m}
    6.750000000000,          !- Vertex 4 Y-coordinate {m}
    15.450000000000;         !- Vertex 4 Z-coordinate {m}

Shading:Building:Detailed,
    6BEC1A,                  !- Name
    ,                        !- Transmittance Schedule Name
    4,                       !- Number of Vertices
    5.800000000000,          !- Vertex 1 X-coordinate {m}
    6.750000000000,          !- Vertex 1 Y-coordinate {m}
    15.450000000000,         !- Vertex 1 Z-coordinate {m}
    5.800000000000,          !- Vertex 2 X-coordinate {m}
    6.750000000000,          !- Vertex 2 Y-coordinate {m}
    14.250000000000,         !- Vertex 2 Z-coordinate {m}
    0.000000000000,          !- Vertex 3 X-coordinate {m}
    6.750000000000,          !- Vertex 3 Y-coordinate {m}
    14.250000000000,         !- Vertex 3 Z-coordinate {m}
    0.000000000000,          !- Vertex 4 X-coordinate {m}
    6.750000000000,          !- Vertex 4 Y-coordinate {m}
    15.450000000000;         !- Vertex 4 Z-coordinate {m}

Shading:Building:Detailed,
    989B1F,                  !- Name
    ,                        !- Transmittance Schedule Name
    4,                       !- Number of Vertices
    0.000000000000,          !- Vertex 1 X-coordinate {m}
    -6.750000000000,         !- Vertex 1 Y-coordinate {m}
    15.450000000000,         !- Vertex 1 Z-coordinate {m}
    0.000000000000,          !- Vertex 2 X-coordinate {m}
    -6.750000000000,         !- Vertex 2 Y-coordinate {m}
    14.250000000000,         !- Vertex 2 Z-coordinate {m}
    5.800000000000,          !- Vertex 3 X-coordinate {m}
    -6.750000000000,         !- Vertex 3 Y-coordinate {m}
    14.250000000000,         !- Vertex 3 Z-coordinate {m}
    5.800000000000,          !- Vertex 4 X-coordinate {m}
    -6.750000000000,         !- Vertex 4 Y-coordinate {m}
    15.450000000000;         !- Vertex 4 Z-coordinate {m}

Shading:Building:Detailed,
    85154B,                  !- Name
    ,                        !- Transmittance Schedule Name
    4,                       !- Number of Vertices
    5.800000000000,          !- Vertex 1 X-coordinate {m}
    -6.750000000000,         !- Vertex 1 Y-coordinate {m}
    15.450000000000,         !- Vertex 1 Z-coordinate {m}
    5.800000000000,          !- Vertex 2 X-coordinate {m}
    -6.750000000000,         !- Vertex 2 Y-coordinate {m}
    14.250000000000,         !- Vertex 2 Z-coordinate {m}
    5.800000000000,          !- Vertex 3 X-coordinate {m}
    -5.550000000000,         !- Vertex 3 Y-coordinate {m}
    14.250000000000,         !- Vertex 3 Z-coordinate {m}
    5.800000000000,          !- Vertex 4 X-coordinate {m}
    -5.550000000000,         !- Vertex 4 Y-coordinate {m}
    15.450000000000;         !- Vertex 4 Z-coordinate {m}

Shading:Building:Detailed,
    7283C3,                  !- Name
    ,                        !- Transmittance Schedule Name
    4,                       !- Number of Vertices
    5.800000000000,          !- Vertex 1 X-coordinate {m}
    -5.550000000000,         !- Vertex 1 Y-coordinate {m}
    15.450000000000,         !- Vertex 1 Z-coordinate {m}
    5.800000000000,          !- Vertex 2 X-coordinate {m}
    -5.550000000000,         !- Vertex 2 Y-coordinate {m}
    14.250000000000,         !- Vertex 2 Z-coordinate {m}
    7.450000000000,          !- Vertex 3 X-coordinate {m}
    -5.550000000000,         !- Vertex 3 Y-coordinate {m}
    14.250000000000,         !- Vertex 3 Z-coordinate {m}
    7.450000000000,          !- Vertex 4 X-coordinate {m}
    -5.550000000000,         !- Vertex 4 Y-coordinate {m}
    15.450000000000;         !- Vertex 4 Z-coordinate {m}

Shading:Building:Detailed,
    A1FD52,                  !- Name
    ,                        !- Transmittance Schedule Name
    4,                       !- Number of Vertices
    7.450000000000,          !- Vertex 1 X-coordinate {m}
    -5.550000000000,         !- Vertex 1 Y-coordinate {m}
    15.450000000000,         !- Vertex 1 Z-coordinate {m}
    7.450000000000,          !- Vertex 2 X-coordinate {m}
    -5.550000000000,         !- Vertex 2 Y-coordinate {m}
    14.250000000000,         !- Vertex 2 Z-coordinate {m}
    7.450000000000,          !- Vertex 3 X-coordinate {m}
    -4.600000000000,         !- Vertex 3 Y-coordinate {m}
    14.250000000000,         !- Vertex 3 Z-coordinate {m}
    7.450000000000,          !- Vertex 4 X-coordinate {m}
    -4.600000000000,         !- Vertex 4 Y-coordinate {m}
    15.450000000000;         !- Vertex 4 Z-coordinate {m}

Shading:Building:Detailed,
    9D154F,                  !- Name
    ,                        !- Transmittance Schedule Name
    4,                       !- Number of Vertices
    7.450000000000,          !- Vertex 1 X-coordinate {m}
    -4.600000000000,         !- Vertex 1 Y-coordinate {m}
    15.450000000000,         !- Vertex 1 Z-coordinate {m}
    7.450000000000,          !- Vertex 2 X-coordinate {m}
    -4.600000000000,         !- Vertex 2 Y-coordinate {m}
    14.250000000000,         !- Vertex 2 Z-coordinate {m}
    8.000000000000,          !- Vertex 3 X-coordinate {m}
    -4.600000000000,         !- Vertex 3 Y-coordinate {m}
    14.250000000000,         !- Vertex 3 Z-coordinate {m}
    8.000000000000,          !- Vertex 4 X-coordinate {m}
    -4.600000000000,         !- Vertex 4 Y-coordinate {m}
    15.450000000000;         !- Vertex 4 Z-coordinate {m}

Shading:Building:Detailed,
    EBFAAE,                  !- Name
    ,                        !- Transmittance Schedule Name
    4,                       !- Number of Vertices
    8.000000000000,          !- Vertex 1 X-coordinate {m}
    -4.600000000000,         !- Vertex 1 Y-coordinate {m}
    15.450000000000,         !- Vertex 1 Z-coordinate {m}
    8.000000000000,          !- Vertex 2 X-coordinate {m}
    -4.600000000000,         !- Vertex 2 Y-coordinate {m}
    14.250000000000,         !- Vertex 2 Z-coordinate {m}
    8.000000000000,          !- Vertex 3 X-coordinate {m}
    -3.600000000000,         !- Vertex 3 Y-coordinate {m}
    14.250000000000,         !- Vertex 3 Z-coordinate {m}
    8.000000000000,          !- Vertex 4 X-coordinate {m}
    -3.600000000000,         !- Vertex 4 Y-coordinate {m}
    15.450000000000;         !- Vertex 4 Z-coordinate {m}

Shading:Building:Detailed,
    DD9B66,                  !- Name
    ,                        !- Transmittance Schedule Name
    4,                       !- Number of Vertices
    8.000000000000,          !- Vertex 1 X-coordinate {m}
    -3.600000000000,         !- Vertex 1 Y-coordinate {m}
    15.450000000000,         !- Vertex 1 Z-coordinate {m}
    8.000000000000,          !- Vertex 2 X-coordinate {m}
    -3.600000000000,         !- Vertex 2 Y-coordinate {m}
    14.250000000000,         !- Vertex 2 Z-coordinate {m}
    9.150000000000,          !- Vertex 3 X-coordinate {m}
    -3.600000000000,         !- Vertex 3 Y-coordinate {m}
    14.250000000000,         !- Vertex 3 Z-coordinate {m}
    9.150000000000,          !- Vertex 4 X-coordinate {m}
    -3.600000000000,         !- Vertex 4 Y-coordinate {m}
    15.450000000000;         !- Vertex 4 Z-coordinate {m}

Shading:Building:Detailed,
    606D30,                  !- Name
    ,                        !- Transmittance Schedule Name
    4,                       !- Number of Vertices
    9.150000000000,          !- Vertex 1 X-coordinate {m}
    -3.600000000000,         !- Vertex 1 Y-coordinate {m}
    15.450000000000,         !- Vertex 1 Z-coordinate {m}
    9.150000000000,          !- Vertex 2 X-coordinate {m}
    -3.600000000000,         !- Vertex 2 Y-coordinate {m}
    14.250000000000,         !- Vertex 2 Z-coordinate {m}
    9.150000000000,          !- Vertex 3 X-coordinate {m}
    -4.600000000000,         !- Vertex 3 Y-coordinate {m}
    14.250000000000,         !- Vertex 3 Z-coordinate {m}
    9.150000000000,          !- Vertex 4 X-coordinate {m}
    -4.600000000000,         !- Vertex 4 Y-coordinate {m}
    15.450000000000;         !- Vertex 4 Z-coordinate {m}

Shading:Building:Detailed,
    DC0E93,                  !- Name
    ,                        !- Transmittance Schedule Name
    4,                       !- Number of Vertices
    9.150000000000,          !- Vertex 1 X-coordinate {m}
    -4.600000000000,         !- Vertex 1 Y-coordinate {m}
    15.450000000000,         !- Vertex 1 Z-coordinate {m}
    9.150000000000,          !- Vertex 2 X-coordinate {m}
    -4.600000000000,         !- Vertex 2 Y-coordinate {m}
    14.250000000000,         !- Vertex 2 Z-coordinate {m}
    9.700000000000,          !- Vertex 3 X-coordinate {m}
    -4.600000000000,         !- Vertex 3 Y-coordinate {m}
    14.250000000000,         !- Vertex 3 Z-coordinate {m}
    9.700000000000,          !- Vertex 4 X-coordinate {m}
    -4.600000000000,         !- Vertex 4 Y-coordinate {m}
    15.450000000000;         !- Vertex 4 Z-coordinate {m}

Shading:Building:Detailed,
    B7150B,                  !- Name
    ,                        !- Transmittance Schedule Name
    4,                       !- Number of Vertices
    9.700000000000,          !- Vertex 1 X-coordinate {m}
    -4.600000000000,         !- Vertex 1 Y-coordinate {m}
    15.450000000000,         !- Vertex 1 Z-coordinate {m}
    9.700000000000,          !- Vertex 2 X-coordinate {m}
    -4.600000000000,         !- Vertex 2 Y-coordinate {m}
    14.250000000000,         !- Vertex 2 Z-coordinate {m}
    9.700000000000,          !- Vertex 3 X-coordinate {m}
    -5.550000000000,         !- Vertex 3 Y-coordinate {m}
    14.250000000000,         !- Vertex 3 Z-coordinate {m}
    9.700000000000,          !- Vertex 4 X-coordinate {m}
    -5.550000000000,         !- Vertex 4 Y-coordinate {m}
    15.450000000000;         !- Vertex 4 Z-coordinate {m}

Shading:Building:Detailed,
    CEC63A,                  !- Name
    ,                        !- Transmittance Schedule Name
    4,                       !- Number of Vertices
    9.700000000000,          !- Vertex 1 X-coordinate {m}
    -5.550000000000,         !- Vertex 1 Y-coordinate {m}
    15.450000000000,         !- Vertex 1 Z-coordinate {m}
    9.700000000000,          !- Vertex 2 X-coordinate {m}
    -5.550000000000,         !- Vertex 2 Y-coordinate {m}
    14.250000000000,         !- Vertex 2 Z-coordinate {m}
    11.350000000000,         !- Vertex 3 X-coordinate {m}
    -5.550000000000,         !- Vertex 3 Y-coordinate {m}
    14.250000000000,         !- Vertex 3 Z-coordinate {m}
    11.350000000000,         !- Vertex 4 X-coordinate {m}
    -5.550000000000,         !- Vertex 4 Y-coordinate {m}
    15.450000000000;         !- Vertex 4 Z-coordinate {m}

Shading:Building:Detailed,
    B48F19,                  !- Name
    ,                        !- Transmittance Schedule Name
    4,                       !- Number of Vertices
    11.350000000000,         !- Vertex 1 X-coordinate {m}
    -5.550000000000,         !- Vertex 1 Y-coordinate {m}
    15.450000000000,         !- Vertex 1 Z-coordinate {m}
    11.350000000000,         !- Vertex 2 X-coordinate {m}
    -5.550000000000,         !- Vertex 2 Y-coordinate {m}
    14.250000000000,         !- Vertex 2 Z-coordinate {m}
    11.350000000000,         !- Vertex 3 X-coordinate {m}
    -6.750000000000,         !- Vertex 3 Y-coordinate {m}
    14.250000000000,         !- Vertex 3 Z-coordinate {m}
    11.350000000000,         !- Vertex 4 X-coordinate {m}
    -6.750000000000,         !- Vertex 4 Y-coordinate {m}
    15.450000000000;         !- Vertex 4 Z-coordinate {m}

Shading:Building:Detailed,
    517C13,                  !- Name
    ,                        !- Transmittance Schedule Name
    4,                       !- Number of Vertices
    11.350000000000,         !- Vertex 1 X-coordinate {m}
    -6.750000000000,         !- Vertex 1 Y-coordinate {m}
    15.450000000000,         !- Vertex 1 Z-coordinate {m}
    11.350000000000,         !- Vertex 2 X-coordinate {m}
    -6.750000000000,         !- Vertex 2 Y-coordinate {m}
    14.250000000000,         !- Vertex 2 Z-coordinate {m}
    17.150000000000,         !- Vertex 3 X-coordinate {m}
    -6.750000000000,         !- Vertex 3 Y-coordinate {m}
    14.250000000000,         !- Vertex 3 Z-coordinate {m}
    17.150000000000,         !- Vertex 4 X-coordinate {m}
    -6.750000000000,         !- Vertex 4 Y-coordinate {m}
    15.450000000000;         !- Vertex 4 Z-coordinate {m}

Shading:Building:Detailed,
    C2146C,                  !- Name
    ,                        !- Transmittance Schedule Name
    4,                       !- Number of Vertices
    0.000000000000,          !- Vertex 1 X-coordinate {m}
    6.750000000000,          !- Vertex 1 Y-coordinate {m}
    15.450000000000,         !- Vertex 1 Z-coordinate {m}
    0.000000000000,          !- Vertex 2 X-coordinate {m}
    6.750000000000,          !- Vertex 2 Y-coordinate {m}
    14.250000000000,         !- Vertex 2 Z-coordinate {m}
    0.000000000000,          !- Vertex 3 X-coordinate {m}
    0.950000000000,          !- Vertex 3 Y-coordinate {m}
    14.250000000000,         !- Vertex 3 Z-coordinate {m}
    0.000000000000,          !- Vertex 4 X-coordinate {m}
    0.950000000000,          !- Vertex 4 Y-coordinate {m}
    15.450000000000;         !- Vertex 4 Z-coordinate {m}

Shading:Building:Detailed,
    D03C03,                  !- Name
    ,                        !- Transmittance Schedule Name
    4,                       !- Number of Vertices
    0.000000000000,          !- Vertex 1 X-coordinate {m}
    -0.950000000000,         !- Vertex 1 Y-coordinate {m}
    15.450000000000,         !- Vertex 1 Z-coordinate {m}
    0.000000000000,          !- Vertex 2 X-coordinate {m}
    -0.950000000000,         !- Vertex 2 Y-coordinate {m}
    14.250000000000,         !- Vertex 2 Z-coordinate {m}
    0.000000000000,          !- Vertex 3 X-coordinate {m}
    -6.750000000000,         !- Vertex 3 Y-coordinate {m}
    14.250000000000,         !- Vertex 3 Z-coordinate {m}
    0.000000000000,          !- Vertex 4 X-coordinate {m}
    -6.750000000000,         !- Vertex 4 Y-coordinate {m}
    15.450000000000;         !- Vertex 4 Z-coordinate {m}

Shading:Building:Detailed,
    495B1F,                  !- Name
    ,                        !- Transmittance Schedule Name
    4,                       !- Number of Vertices
    0.000000000000,          !- Vertex 1 X-coordinate {m}
    0.950000000000,          !- Vertex 1 Y-coordinate {m}
    15.450000000000,         !- Vertex 1 Z-coordinate {m}
    0.000000000000,          !- Vertex 2 X-coordinate {m}
    0.950000000000,          !- Vertex 2 Y-coordinate {m}
    14.250000000000,         !- Vertex 2 Z-coordinate {m}
    1.350000000000,          !- Vertex 3 X-coordinate {m}
    0.950000000000,          !- Vertex 3 Y-coordinate {m}
    14.250000000000,         !- Vertex 3 Z-coordinate {m}
    1.350000000000,          !- Vertex 4 X-coordinate {m}
    0.950000000000,          !- Vertex 4 Y-coordinate {m}
    15.450000000000;         !- Vertex 4 Z-coordinate {m}

Shading:Building:Detailed,
    EB9F92,                  !- Name
    ,                        !- Transmittance Schedule Name
    4,                       !- Number of Vertices
    1.350000000000,          !- Vertex 1 X-coordinate {m}
    0.950000000000,          !- Vertex 1 Y-coordinate {m}
    15.450000000000,         !- Vertex 1 Z-coordinate {m}
    1.350000000000,          !- Vertex 2 X-coordinate {m}
    0.950000000000,          !- Vertex 2 Y-coordinate {m}
    14.250000000000,         !- Vertex 2 Z-coordinate {m}
    1.350000000000,          !- Vertex 3 X-coordinate {m}
    -0.950000000000,         !- Vertex 3 Y-coordinate {m}
    14.250000000000,         !- Vertex 3 Z-coordinate {m}
    1.350000000000,          !- Vertex 4 X-coordinate {m}
    -0.950000000000,         !- Vertex 4 Y-coordinate {m}
    15.450000000000;         !- Vertex 4 Z-coordinate {m}

Shading:Building:Detailed,
    6D9ACE,                  !- Name
    ,                        !- Transmittance Schedule Name
    4,                       !- Number of Vertices
    1.350000000000,          !- Vertex 1 X-coordinate {m}
    -0.950000000000,         !- Vertex 1 Y-coordinate {m}
    15.450000000000,         !- Vertex 1 Z-coordinate {m}
    1.350000000000,          !- Vertex 2 X-coordinate {m}
    -0.950000000000,         !- Vertex 2 Y-coordinate {m}
    14.250000000000,         !- Vertex 2 Z-coordinate {m}
    0.000000000000,          !- Vertex 3 X-coordinate {m}
    -0.950000000000,         !- Vertex 3 Y-coordinate {m}
    14.250000000000,         !- Vertex 3 Z-coordinate {m}
    0.000000000000,          !- Vertex 4 X-coordinate {m}
    -0.950000000000,         !- Vertex 4 Y-coordinate {m}
    15.450000000000;         !- Vertex 4 Z-coordinate {m}

Shading:Building:Detailed,
    6F28CC,                  !- Name
    ,                        !- Transmittance Schedule Name
    4,                       !- Number of Vertices
    0.000000000000,          !- Vertex 1 X-coordinate {m}
    0.950000000000,          !- Vertex 1 Y-coordinate {m}
    15.450000000000,         !- Vertex 1 Z-coordinate {m}
    0.000000000000,          !- Vertex 2 X-coordinate {m}
    0.950000000000,          !- Vertex 2 Y-coordinate {m}
    14.250000000000,         !- Vertex 2 Z-coordinate {m}
    1.350000000000,          !- Vertex 3 X-coordinate {m}
    0.950000000000,          !- Vertex 3 Y-coordinate {m}
    14.250000000000,         !- Vertex 3 Z-coordinate {m}
    1.350000000000,          !- Vertex 4 X-coordinate {m}
    0.950000000000,          !- Vertex 4 Y-coordinate {m}
    15.450000000000;         !- Vertex 4 Z-coordinate {m}

Shading:Building:Detailed,
    B2658A,                  !- Name
    ,                        !- Transmittance Schedule Name
    4,                       !- Number of Vertices
    1.350000000000,          !- Vertex 1 X-coordinate {m}
    0.950000000000,          !- Vertex 1 Y-coordinate {m}
    15.450000000000,         !- Vertex 1 Z-coordinate {m}
    1.350000000000,          !- Vertex 2 X-coordinate {m}
    0.950000000000,          !- Vertex 2 Y-coordinate {m}
    14.250000000000,         !- Vertex 2 Z-coordinate {m}
    1.350000000000,          !- Vertex 3 X-coordinate {m}
    -0.950000000000,         !- Vertex 3 Y-coordinate {m}
    14.250000000000,         !- Vertex 3 Z-coordinate {m}
    1.350000000000,          !- Vertex 4 X-coordinate {m}
    -0.950000000000,         !- Vertex 4 Y-coordinate {m}
    15.450000000000;         !- Vertex 4 Z-coordinate {m}

Shading:Building:Detailed,
    231A5D,                  !- Name
    ,                        !- Transmittance Schedule Name
    4,                       !- Number of Vertices
    1.350000000000,          !- Vertex 1 X-coordinate {m}
    -0.950000000000,         !- Vertex 1 Y-coordinate {m}
    15.450000000000,         !- Vertex 1 Z-coordinate {m}
    1.350000000000,          !- Vertex 2 X-coordinate {m}
    -0.950000000000,         !- Vertex 2 Y-coordinate {m}
    14.250000000000,         !- Vertex 2 Z-coordinate {m}
    0.000000000000,          !- Vertex 3 X-coordinate {m}
    -0.950000000000,         !- Vertex 3 Y-coordinate {m}
    14.250000000000,         !- Vertex 3 Z-coordinate {m}
    0.000000000000,          !- Vertex 4 X-coordinate {m}
    -0.950000000000,         !- Vertex 4 Y-coordinate {m}
    15.450000000000;         !- Vertex 4 Z-coordinate {m}

Shading:Building:Detailed,
    159420,                  !- Name
    ,                        !- Transmittance Schedule Name
    4,                       !- Number of Vertices
    0.000000000000,          !- Vertex 1 X-coordinate {m}
    -0.950000000000,         !- Vertex 1 Y-coordinate {m}
    15.450000000000,         !- Vertex 1 Z-coordinate {m}
    0.000000000000,          !- Vertex 2 X-coordinate {m}
    -0.950000000000,         !- Vertex 2 Y-coordinate {m}
    14.250000000000,         !- Vertex 2 Z-coordinate {m}
    0.000000000000,          !- Vertex 3 X-coordinate {m}
    -6.750000000000,         !- Vertex 3 Y-coordinate {m}
    14.250000000000,         !- Vertex 3 Z-coordinate {m}
    0.000000000000,          !- Vertex 4 X-coordinate {m}
    -6.750000000000,         !- Vertex 4 Y-coordinate {m}
    15.450000000000;         !- Vertex 4 Z-coordinate {m}

Shading:Building:Detailed,
    826857,                  !- Name
    ,                        !- Transmittance Schedule Name
    4,                       !- Number of Vertices
    0.000000000000,          !- Vertex 1 X-coordinate {m}
    6.750000000000,          !- Vertex 1 Y-coordinate {m}
    15.450000000000,         !- Vertex 1 Z-coordinate {m}
    0.000000000000,          !- Vertex 2 X-coordinate {m}
    6.750000000000,          !- Vertex 2 Y-coordinate {m}
    14.250000000000,         !- Vertex 2 Z-coordinate {m}
    0.000000000000,          !- Vertex 3 X-coordinate {m}
    0.950000000000,          !- Vertex 3 Y-coordinate {m}
    14.250000000000,         !- Vertex 3 Z-coordinate {m}
    0.000000000000,          !- Vertex 4 X-coordinate {m}
    0.950000000000,          !- Vertex 4 Y-coordinate {m}
    15.450000000000;         !- Vertex 4 Z-coordinate {m}

Shading:Building:Detailed,
    E378DD,                  !- Name
    ,                        !- Transmittance Schedule Name
    4,                       !- Number of Vertices
    17.150000000000,         !- Vertex 1 X-coordinate {m}
    0.950000000000,          !- Vertex 1 Y-coordinate {m}
    15.450000000000,         !- Vertex 1 Z-coordinate {m}
    17.150000000000,         !- Vertex 2 X-coordinate {m}
    0.950000000000,          !- Vertex 2 Y-coordinate {m}
    14.250000000000,         !- Vertex 2 Z-coordinate {m}
    17.150000000000,         !- Vertex 3 X-coordinate {m}
    6.750000000000,          !- Vertex 3 Y-coordinate {m}
    14.250000000000,         !- Vertex 3 Z-coordinate {m}
    17.150000000000,         !- Vertex 4 X-coordinate {m}
    6.750000000000,          !- Vertex 4 Y-coordinate {m}
    15.450000000000;         !- Vertex 4 Z-coordinate {m}

Shading:Building:Detailed,
    3EC41B,                  !- Name
    ,                        !- Transmittance Schedule Name
    4,                       !- Number of Vertices
    17.150000000000,         !- Vertex 1 X-coordinate {m}
    -6.750000000000,         !- Vertex 1 Y-coordinate {m}
    15.450000000000,         !- Vertex 1 Z-coordinate {m}
    17.150000000000,         !- Vertex 2 X-coordinate {m}
    -6.750000000000,         !- Vertex 2 Y-coordinate {m}
    14.250000000000,         !- Vertex 2 Z-coordinate {m}
    17.150000000000,         !- Vertex 3 X-coordinate {m}
    -0.950000000000,         !- Vertex 3 Y-coordinate {m}
    14.250000000000,         !- Vertex 3 Z-coordinate {m}
    17.150000000000,         !- Vertex 4 X-coordinate {m}
    -0.950000000000,         !- Vertex 4 Y-coordinate {m}
    15.450000000000;         !- Vertex 4 Z-coordinate {m}

Shading:Building:Detailed,
    357CC8,                  !- Name
    ,                        !- Transmittance Schedule Name
    4,                       !- Number of Vertices
    17.150000000000,         !- Vertex 1 X-coordinate {m}
    -0.950000000000,         !- Vertex 1 Y-coordinate {m}
    15.450000000000,         !- Vertex 1 Z-coordinate {m}
    17.150000000000,         !- Vertex 2 X-coordinate {m}
    -0.950000000000,         !- Vertex 2 Y-coordinate {m}
    14.250000000000,         !- Vertex 2 Z-coordinate {m}
    15.800000000000,         !- Vertex 3 X-coordinate {m}
    -0.950000000000,         !- Vertex 3 Y-coordinate {m}
    14.250000000000,         !- Vertex 3 Z-coordinate {m}
    15.800000000000,         !- Vertex 4 X-coordinate {m}
    -0.950000000000,         !- Vertex 4 Y-coordinate {m}
    15.450000000000;         !- Vertex 4 Z-coordinate {m}

Shading:Building:Detailed,
    D222E7,                  !- Name
    ,                        !- Transmittance Schedule Name
    4,                       !- Number of Vertices
    15.800000000000,         !- Vertex 1 X-coordinate {m}
    -0.950000000000,         !- Vertex 1 Y-coordinate {m}
    15.450000000000,         !- Vertex 1 Z-coordinate {m}
    15.800000000000,         !- Vertex 2 X-coordinate {m}
    -0.950000000000,         !- Vertex 2 Y-coordinate {m}
    14.250000000000,         !- Vertex 2 Z-coordinate {m}
    15.800000000000,         !- Vertex 3 X-coordinate {m}
    0.950000000000,          !- Vertex 3 Y-coordinate {m}
    14.250000000000,         !- Vertex 3 Z-coordinate {m}
    15.800000000000,         !- Vertex 4 X-coordinate {m}
    0.950000000000,          !- Vertex 4 Y-coordinate {m}
    15.450000000000;         !- Vertex 4 Z-coordinate {m}

Shading:Building:Detailed,
    BA52B0,                  !- Name
    ,                        !- Transmittance Schedule Name
    4,                       !- Number of Vertices
    15.800000000000,         !- Vertex 1 X-coordinate {m}
    0.950000000000,          !- Vertex 1 Y-coordinate {m}
    15.450000000000,         !- Vertex 1 Z-coordinate {m}
    15.800000000000,         !- Vertex 2 X-coordinate {m}
    0.950000000000,          !- Vertex 2 Y-coordinate {m}
    14.250000000000,         !- Vertex 2 Z-coordinate {m}
    17.150000000000,         !- Vertex 3 X-coordinate {m}
    0.950000000000,          !- Vertex 3 Y-coordinate {m}
    14.250000000000,         !- Vertex 3 Z-coordinate {m}
    17.150000000000,         !- Vertex 4 X-coordinate {m}
    0.950000000000,          !- Vertex 4 Y-coordinate {m}
    15.450000000000;         !- Vertex 4 Z-coordinate {m}

Shading:Building:Detailed,
    92D626,                  !- Name
    ,                        !- Transmittance Schedule Name
    4,                       !- Number of Vertices
    17.150000000000,         !- Vertex 1 X-coordinate {m}
    -11.750000000000,        !- Vertex 1 Y-coordinate {m}
    15.450000000000,         !- Vertex 1 Z-coordinate {m}
    17.150000000000,         !- Vertex 2 X-coordinate {m}
    -11.750000000000,        !- Vertex 2 Y-coordinate {m}
    0.000000000000,          !- Vertex 2 Z-coordinate {m}
    0.000000000000,          !- Vertex 3 X-coordinate {m}
    -11.750000000000,        !- Vertex 3 Y-coordinate {m}
    0.000000000000,          !- Vertex 3 Z-coordinate {m}
    0.000000000000,          !- Vertex 4 X-coordinate {m}
    -11.750000000000,        !- Vertex 4 Y-coordinate {m}
    15.450000000000;         !- Vertex 4 Z-coordinate {m}

Shading:Building:Detailed,
    83C082,                  !- Name
    ,                        !- Transmittance Schedule Name
    4,                       !- Number of Vertices
    17.150000000000,         !- Vertex 1 X-coordinate {m}
    -25.250000000000,        !- Vertex 1 Y-coordinate {m}
    15.450000000000,         !- Vertex 1 Z-coordinate {m}
    17.150000000000,         !- Vertex 2 X-coordinate {m}
    -25.250000000000,        !- Vertex 2 Y-coordinate {m}
    0.000000000000,          !- Vertex 2 Z-coordinate {m}
    17.150000000000,         !- Vertex 3 X-coordinate {m}
    -11.750000000000,        !- Vertex 3 Y-coordinate {m}
    0.000000000000,          !- Vertex 3 Z-coordinate {m}
    17.150000000000,         !- Vertex 4 X-coordinate {m}
    -11.750000000000,        !- Vertex 4 Y-coordinate {m}
    15.450000000000;         !- Vertex 4 Z-coordinate {m}

Shading:Building:Detailed,
    F97717,                  !- Name
    ,                        !- Transmittance Schedule Name
    4,                       !- Number of Vertices
    0.000000000000,          !- Vertex 1 X-coordinate {m}
    -25.250000000000,        !- Vertex 1 Y-coordinate {m}
    15.450000000000,         !- Vertex 1 Z-coordinate {m}
    0.000000000000,          !- Vertex 2 X-coordinate {m}
    -25.250000000000,        !- Vertex 2 Y-coordinate {m}
    0.000000000000,          !- Vertex 2 Z-coordinate {m}
    17.150000000000,         !- Vertex 3 X-coordinate {m}
    -25.250000000000,        !- Vertex 3 Y-coordinate {m}
    0.000000000000,          !- Vertex 3 Z-coordinate {m}
    17.150000000000,         !- Vertex 4 X-coordinate {m}
    -25.250000000000,        !- Vertex 4 Y-coordinate {m}
    15.450000000000;         !- Vertex 4 Z-coordinate {m}

Shading:Building:Detailed,
    CC84D0,                  !- Name
    ,                        !- Transmittance Schedule Name
    4,                       !- Number of Vertices
    0.000000000000,          !- Vertex 1 X-coordinate {m}
    -11.750000000000,        !- Vertex 1 Y-coordinate {m}
    15.450000000000,         !- Vertex 1 Z-coordinate {m}
    0.000000000000,          !- Vertex 2 X-coordinate {m}
    -25.250000000000,        !- Vertex 2 Y-coordinate {m}
    15.450000000000,         !- Vertex 2 Z-coordinate {m}
    17.150000000000,         !- Vertex 3 X-coordinate {m}
    -25.250000000000,        !- Vertex 3 Y-coordinate {m}
    15.450000000000,         !- Vertex 3 Z-coordinate {m}
    17.150000000000,         !- Vertex 4 X-coordinate {m}
    -11.750000000000,        !- Vertex 4 Y-coordinate {m}
    15.450000000000;         !- Vertex 4 Z-coordinate {m}

Shading:Building:Detailed,
    F0ED54,                  !- Name
    ,                        !- Transmittance Schedule Name
    4,                       !- Number of Vertices
    17.150000000000,         !- Vertex 1 X-coordinate {m}
    -11.750000000000,        !- Vertex 1 Y-coordinate {m}
    0.000000000000,          !- Vertex 1 Z-coordinate {m}
    17.150000000000,         !- Vertex 2 X-coordinate {m}
    -25.250000000000,        !- Vertex 2 Y-coordinate {m}
    0.000000000000,          !- Vertex 2 Z-coordinate {m}
    0.000000000000,          !- Vertex 3 X-coordinate {m}
    -25.250000000000,        !- Vertex 3 Y-coordinate {m}
    0.000000000000,          !- Vertex 3 Z-coordinate {m}
    0.000000000000,          !- Vertex 4 X-coordinate {m}
    -11.750000000000,        !- Vertex 4 Y-coordinate {m}
    0.000000000000;          !- Vertex 4 Z-coordinate {m}

Shading:Building:Detailed,
    DF631D,                  !- Name
    ,                        !- Transmittance Schedule Name
    4,                       !- Number of Vertices
    0.000000000000,          !- Vertex 1 X-coordinate {m}
    -11.750000000000,        !- Vertex 1 Y-coordinate {m}
    15.450000000000,         !- Vertex 1 Z-coordinate {m}
    0.000000000000,          !- Vertex 2 X-coordinate {m}
    -11.750000000000,        !- Vertex 2 Y-coordinate {m}
    0.000000000000,          !- Vertex 2 Z-coordinate {m}
    0.000000000000,          !- Vertex 3 X-coordinate {m}
    -25.250000000000,        !- Vertex 3 Y-coordinate {m}
    0.000000000000,          !- Vertex 3 Z-coordinate {m}
    0.000000000000,          !- Vertex 4 X-coordinate {m}
    -25.250000000000,        !- Vertex 4 Y-coordinate {m}
    15.450000000000;         !- Vertex 4 Z-coordinate {m}

Shading:Building:Detailed,
    32498F,                  !- Name
    ,                        !- Transmittance Schedule Name
    4,                       !- Number of Vertices
    -5.000000000000,         !- Vertex 1 X-coordinate {m}
    -11.750000000000,        !- Vertex 1 Y-coordinate {m}
    15.450000000000,         !- Vertex 1 Z-coordinate {m}
    -5.000000000000,         !- Vertex 2 X-coordinate {m}
    -11.750000000000,        !- Vertex 2 Y-coordinate {m}
    0.000000000000,          !- Vertex 2 Z-coordinate {m}
    -22.150000000000,        !- Vertex 3 X-coordinate {m}
    -11.750000000000,        !- Vertex 3 Y-coordinate {m}
    0.000000000000,          !- Vertex 3 Z-coordinate {m}
    -22.150000000000,        !- Vertex 4 X-coordinate {m}
    -11.750000000000,        !- Vertex 4 Y-coordinate {m}
    15.450000000000;         !- Vertex 4 Z-coordinate {m}

Shading:Building:Detailed,
    A61C61,                  !- Name
    ,                        !- Transmittance Schedule Name
    4,                       !- Number of Vertices
    -5.000000000000,         !- Vertex 1 X-coordinate {m}
    -25.250000000000,        !- Vertex 1 Y-coordinate {m}
    15.450000000000,         !- Vertex 1 Z-coordinate {m}
    -5.000000000000,         !- Vertex 2 X-coordinate {m}
    -25.250000000000,        !- Vertex 2 Y-coordinate {m}
    0.000000000000,          !- Vertex 2 Z-coordinate {m}
    -5.000000000000,         !- Vertex 3 X-coordinate {m}
    -11.750000000000,        !- Vertex 3 Y-coordinate {m}
    0.000000000000,          !- Vertex 3 Z-coordinate {m}
    -5.000000000000,         !- Vertex 4 X-coordinate {m}
    -11.750000000000,        !- Vertex 4 Y-coordinate {m}
    15.450000000000;         !- Vertex 4 Z-coordinate {m}

Shading:Building:Detailed,
    F6432A,                  !- Name
    ,                        !- Transmittance Schedule Name
    4,                       !- Number of Vertices
    -22.150000000000,        !- Vertex 1 X-coordinate {m}
    -25.250000000000,        !- Vertex 1 Y-coordinate {m}
    15.450000000000,         !- Vertex 1 Z-coordinate {m}
    -22.150000000000,        !- Vertex 2 X-coordinate {m}
    -25.250000000000,        !- Vertex 2 Y-coordinate {m}
    0.000000000000,          !- Vertex 2 Z-coordinate {m}
    -5.000000000000,         !- Vertex 3 X-coordinate {m}
    -25.250000000000,        !- Vertex 3 Y-coordinate {m}
    0.000000000000,          !- Vertex 3 Z-coordinate {m}
    -5.000000000000,         !- Vertex 4 X-coordinate {m}
    -25.250000000000,        !- Vertex 4 Y-coordinate {m}
    15.450000000000;         !- Vertex 4 Z-coordinate {m}

Shading:Building:Detailed,
    39C75A,                  !- Name
    ,                        !- Transmittance Schedule Name
    4,                       !- Number of Vertices
    -22.150000000000,        !- Vertex 1 X-coordinate {m}
    -11.750000000000,        !- Vertex 1 Y-coordinate {m}
    15.450000000000,         !- Vertex 1 Z-coordinate {m}
    -22.150000000000,        !- Vertex 2 X-coordinate {m}
    -25.250000000000,        !- Vertex 2 Y-coordinate {m}
    15.450000000000,         !- Vertex 2 Z-coordinate {m}
    -5.000000000000,         !- Vertex 3 X-coordinate {m}
    -25.250000000000,        !- Vertex 3 Y-coordinate {m}
    15.450000000000,         !- Vertex 3 Z-coordinate {m}
    -5.000000000000,         !- Vertex 4 X-coordinate {m}
    -11.750000000000,        !- Vertex 4 Y-coordinate {m}
    15.450000000000;         !- Vertex 4 Z-coordinate {m}

Shading:Building:Detailed,
    B0D67B,                  !- Name
    ,                        !- Transmittance Schedule Name
    4,                       !- Number of Vertices
    -5.000000000000,         !- Vertex 1 X-coordinate {m}
    -11.750000000000,        !- Vertex 1 Y-coordinate {m}
    0.000000000000,          !- Vertex 1 Z-coordinate {m}
    -5.000000000000,         !- Vertex 2 X-coordinate {m}
    -25.250000000000,        !- Vertex 2 Y-coordinate {m}
    0.000000000000,          !- Vertex 2 Z-coordinate {m}
    -22.150000000000,        !- Vertex 3 X-coordinate {m}
    -25.250000000000,        !- Vertex 3 Y-coordinate {m}
    0.000000000000,          !- Vertex 3 Z-coordinate {m}
    -22.150000000000,        !- Vertex 4 X-coordinate {m}
    -11.750000000000,        !- Vertex 4 Y-coordinate {m}
    0.000000000000;          !- Vertex 4 Z-coordinate {m}

Shading:Building:Detailed,
    3ADD33,                  !- Name
    ,                        !- Transmittance Schedule Name
    4,                       !- Number of Vertices
    -22.150000000000,        !- Vertex 1 X-coordinate {m}
    -11.750000000000,        !- Vertex 1 Y-coordinate {m}
    15.450000000000,         !- Vertex 1 Z-coordinate {m}
    -22.150000000000,        !- Vertex 2 X-coordinate {m}
    -11.750000000000,        !- Vertex 2 Y-coordinate {m}
    0.000000000000,          !- Vertex 2 Z-coordinate {m}
    -22.150000000000,        !- Vertex 3 X-coordinate {m}
    -25.250000000000,        !- Vertex 3 Y-coordinate {m}
    0.000000000000,          !- Vertex 3 Z-coordinate {m}
    -22.150000000000,        !- Vertex 4 X-coordinate {m}
    -25.250000000000,        !- Vertex 4 Y-coordinate {m}
    15.450000000000;         !- Vertex 4 Z-coordinate {m}

Shading:Building:Detailed,
    FE7711,                  !- Name
    ,                        !- Transmittance Schedule Name
    4,                       !- Number of Vertices
    39.300000000000,         !- Vertex 1 X-coordinate {m}
    -11.750000000000,        !- Vertex 1 Y-coordinate {m}
    15.450000000000,         !- Vertex 1 Z-coordinate {m}
    39.300000000000,         !- Vertex 2 X-coordinate {m}
    -11.750000000000,        !- Vertex 2 Y-coordinate {m}
    0.000000000000,          !- Vertex 2 Z-coordinate {m}
    22.150000000000,         !- Vertex 3 X-coordinate {m}
    -11.750000000000,        !- Vertex 3 Y-coordinate {m}
    0.000000000000,          !- Vertex 3 Z-coordinate {m}
    22.150000000000,         !- Vertex 4 X-coordinate {m}
    -11.750000000000,        !- Vertex 4 Y-coordinate {m}
    15.450000000000;         !- Vertex 4 Z-coordinate {m}

Shading:Building:Detailed,
    AD9E64,                  !- Name
    ,                        !- Transmittance Schedule Name
    4,                       !- Number of Vertices
    39.300000000000,         !- Vertex 1 X-coordinate {m}
    -25.250000000000,        !- Vertex 1 Y-coordinate {m}
    15.450000000000,         !- Vertex 1 Z-coordinate {m}
    39.300000000000,         !- Vertex 2 X-coordinate {m}
    -25.250000000000,        !- Vertex 2 Y-coordinate {m}
    0.000000000000,          !- Vertex 2 Z-coordinate {m}
    39.300000000000,         !- Vertex 3 X-coordinate {m}
    -11.750000000000,        !- Vertex 3 Y-coordinate {m}
    0.000000000000,          !- Vertex 3 Z-coordinate {m}
    39.300000000000,         !- Vertex 4 X-coordinate {m}
    -11.750000000000,        !- Vertex 4 Y-coordinate {m}
    15.450000000000;         !- Vertex 4 Z-coordinate {m}

Shading:Building:Detailed,
    6E76A5,                  !- Name
    ,                        !- Transmittance Schedule Name
    4,                       !- Number of Vertices
    22.150000000000,         !- Vertex 1 X-coordinate {m}
    -25.250000000000,        !- Vertex 1 Y-coordinate {m}
    15.450000000000,         !- Vertex 1 Z-coordinate {m}
    22.150000000000,         !- Vertex 2 X-coordinate {m}
    -25.250000000000,        !- Vertex 2 Y-coordinate {m}
    0.000000000000,          !- Vertex 2 Z-coordinate {m}
    39.300000000000,         !- Vertex 3 X-coordinate {m}
    -25.250000000000,        !- Vertex 3 Y-coordinate {m}
    0.000000000000,          !- Vertex 3 Z-coordinate {m}
    39.300000000000,         !- Vertex 4 X-coordinate {m}
    -25.250000000000,        !- Vertex 4 Y-coordinate {m}
    15.450000000000;         !- Vertex 4 Z-coordinate {m}

Shading:Building:Detailed,
    FB5E9D,                  !- Name
    ,                        !- Transmittance Schedule Name
    4,                       !- Number of Vertices
    22.150000000000,         !- Vertex 1 X-coordinate {m}
    -11.750000000000,        !- Vertex 1 Y-coordinate {m}
    15.450000000000,         !- Vertex 1 Z-coordinate {m}
    22.150000000000,         !- Vertex 2 X-coordinate {m}
    -25.250000000000,        !- Vertex 2 Y-coordinate {m}
    15.450000000000,         !- Vertex 2 Z-coordinate {m}
    39.300000000000,         !- Vertex 3 X-coordinate {m}
    -25.250000000000,        !- Vertex 3 Y-coordinate {m}
    15.450000000000,         !- Vertex 3 Z-coordinate {m}
    39.300000000000,         !- Vertex 4 X-coordinate {m}
    -11.750000000000,        !- Vertex 4 Y-coordinate {m}
    15.450000000000;         !- Vertex 4 Z-coordinate {m}

Shading:Building:Detailed,
    905BD8,                  !- Name
    ,                        !- Transmittance Schedule Name
    4,                       !- Number of Vertices
    39.300000000000,         !- Vertex 1 X-coordinate {m}
    -11.750000000000,        !- Vertex 1 Y-coordinate {m}
    0.000000000000,          !- Vertex 1 Z-coordinate {m}
    39.300000000000,         !- Vertex 2 X-coordinate {m}
    -25.250000000000,        !- Vertex 2 Y-coordinate {m}
    0.000000000000,          !- Vertex 2 Z-coordinate {m}
    22.150000000000,         !- Vertex 3 X-coordinate {m}
    -25.250000000000,        !- Vertex 3 Y-coordinate {m}
    0.000000000000,          !- Vertex 3 Z-coordinate {m}
    22.150000000000,         !- Vertex 4 X-coordinate {m}
    -11.750000000000,        !- Vertex 4 Y-coordinate {m}
    0.000000000000;          !- Vertex 4 Z-coordinate {m}

Shading:Building:Detailed,
    8A30A6,                  !- Name
    ,                        !- Transmittance Schedule Name
    4,                       !- Number of Vertices
    22.150000000000,         !- Vertex 1 X-coordinate {m}
    -11.750000000000,        !- Vertex 1 Y-coordinate {m}
    15.450000000000,         !- Vertex 1 Z-coordinate {m}
    22.150000000000,         !- Vertex 2 X-coordinate {m}
    -11.750000000000,        !- Vertex 2 Y-coordinate {m}
    0.000000000000,          !- Vertex 2 Z-coordinate {m}
    22.150000000000,         !- Vertex 3 X-coordinate {m}
    -25.250000000000,        !- Vertex 3 Y-coordinate {m}
    0.000000000000,          !- Vertex 3 Z-coordinate {m}
    22.150000000000,         !- Vertex 4 X-coordinate {m}
    -25.250000000000,        !- Vertex 4 Y-coordinate {m}
    15.450000000000;         !- Vertex 4 Z-coordinate {m}

Shading:Building:Detailed,
    C07A13,                  !- Name
    ,                        !- Transmittance Schedule Name
    4,                       !- Number of Vertices
    39.300000000000,         !- Vertex 1 X-coordinate {m}
    6.750000000000,          !- Vertex 1 Y-coordinate {m}
    15.450000000000,         !- Vertex 1 Z-coordinate {m}
    39.300000000000,         !- Vertex 2 X-coordinate {m}
    6.750000000000,          !- Vertex 2 Y-coordinate {m}
    0.000000000000,          !- Vertex 2 Z-coordinate {m}
    22.150000000000,         !- Vertex 3 X-coordinate {m}
    6.750000000000,          !- Vertex 3 Y-coordinate {m}
    0.000000000000,          !- Vertex 3 Z-coordinate {m}
    22.150000000000,         !- Vertex 4 X-coordinate {m}
    6.750000000000,          !- Vertex 4 Y-coordinate {m}
    15.450000000000;         !- Vertex 4 Z-coordinate {m}

Shading:Building:Detailed,
    2CF6EA,                  !- Name
    ,                        !- Transmittance Schedule Name
    4,                       !- Number of Vertices
    39.300000000000,         !- Vertex 1 X-coordinate {m}
    -6.750000000000,         !- Vertex 1 Y-coordinate {m}
    15.450000000000,         !- Vertex 1 Z-coordinate {m}
    39.300000000000,         !- Vertex 2 X-coordinate {m}
    -6.750000000000,         !- Vertex 2 Y-coordinate {m}
    0.000000000000,          !- Vertex 2 Z-coordinate {m}
    39.300000000000,         !- Vertex 3 X-coordinate {m}
    6.750000000000,          !- Vertex 3 Y-coordinate {m}
    0.000000000000,          !- Vertex 3 Z-coordinate {m}
    39.300000000000,         !- Vertex 4 X-coordinate {m}
    6.750000000000,          !- Vertex 4 Y-coordinate {m}
    15.450000000000;         !- Vertex 4 Z-coordinate {m}

Shading:Building:Detailed,
    802117,                  !- Name
    ,                        !- Transmittance Schedule Name
    4,                       !- Number of Vertices
    22.150000000000,         !- Vertex 1 X-coordinate {m}
    -6.750000000000,         !- Vertex 1 Y-coordinate {m}
    15.450000000000,         !- Vertex 1 Z-coordinate {m}
    22.150000000000,         !- Vertex 2 X-coordinate {m}
    -6.750000000000,         !- Vertex 2 Y-coordinate {m}
    0.000000000000,          !- Vertex 2 Z-coordinate {m}
    39.300000000000,         !- Vertex 3 X-coordinate {m}
    -6.750000000000,         !- Vertex 3 Y-coordinate {m}
    0.000000000000,          !- Vertex 3 Z-coordinate {m}
    39.300000000000,         !- Vertex 4 X-coordinate {m}
    -6.750000000000,         !- Vertex 4 Y-coordinate {m}
    15.450000000000;         !- Vertex 4 Z-coordinate {m}

Shading:Building:Detailed,
    139567,                  !- Name
    ,                        !- Transmittance Schedule Name
    4,                       !- Number of Vertices
    22.150000000000,         !- Vertex 1 X-coordinate {m}
    6.750000000000,          !- Vertex 1 Y-coordinate {m}
    15.450000000000,         !- Vertex 1 Z-coordinate {m}
    22.150000000000,         !- Vertex 2 X-coordinate {m}
    -6.750000000000,         !- Vertex 2 Y-coordinate {m}
    15.450000000000,         !- Vertex 2 Z-coordinate {m}
    39.300000000000,         !- Vertex 3 X-coordinate {m}
    -6.750000000000,         !- Vertex 3 Y-coordinate {m}
    15.450000000000,         !- Vertex 3 Z-coordinate {m}
    39.300000000000,         !- Vertex 4 X-coordinate {m}
    6.750000000000,          !- Vertex 4 Y-coordinate {m}
    15.450000000000;         !- Vertex 4 Z-coordinate {m}

Shading:Building:Detailed,
    EDEEAB,                  !- Name
    ,                        !- Transmittance Schedule Name
    4,                       !- Number of Vertices
    39.300000000000,         !- Vertex 1 X-coordinate {m}
    6.750000000000,          !- Vertex 1 Y-coordinate {m}
    0.000000000000,          !- Vertex 1 Z-coordinate {m}
    39.300000000000,         !- Vertex 2 X-coordinate {m}
    -6.750000000000,         !- Vertex 2 Y-coordinate {m}
    0.000000000000,          !- Vertex 2 Z-coordinate {m}
    22.150000000000,         !- Vertex 3 X-coordinate {m}
    -6.750000000000,         !- Vertex 3 Y-coordinate {m}
    0.000000000000,          !- Vertex 3 Z-coordinate {m}
    22.150000000000,         !- Vertex 4 X-coordinate {m}
    6.750000000000,          !- Vertex 4 Y-coordinate {m}
    0.000000000000;          !- Vertex 4 Z-coordinate {m}

Shading:Building:Detailed,
    884184,                  !- Name
    ,                        !- Transmittance Schedule Name
    4,                       !- Number of Vertices
    22.150000000000,         !- Vertex 1 X-coordinate {m}
    6.750000000000,          !- Vertex 1 Y-coordinate {m}
    15.450000000000,         !- Vertex 1 Z-coordinate {m}
    22.150000000000,         !- Vertex 2 X-coordinate {m}
    6.750000000000,          !- Vertex 2 Y-coordinate {m}
    0.000000000000,          !- Vertex 2 Z-coordinate {m}
    22.150000000000,         !- Vertex 3 X-coordinate {m}
    -6.750000000000,         !- Vertex 3 Y-coordinate {m}
    0.000000000000,          !- Vertex 3 Z-coordinate {m}
    22.150000000000,         !- Vertex 4 X-coordinate {m}
    -6.750000000000,         !- Vertex 4 Y-coordinate {m}
    15.450000000000;         !- Vertex 4 Z-coordinate {m}

Shading:Building:Detailed,
    C6B165,                  !- Name
    ,                        !- Transmittance Schedule Name
    4,                       !- Number of Vertices
    -5.000000000000,         !- Vertex 1 X-coordinate {m}
    6.750000000000,          !- Vertex 1 Y-coordinate {m}
    15.450000000000,         !- Vertex 1 Z-coordinate {m}
    -5.000000000000,         !- Vertex 2 X-coordinate {m}
    6.750000000000,          !- Vertex 2 Y-coordinate {m}
    0.000000000000,          !- Vertex 2 Z-coordinate {m}
    -22.150000000000,        !- Vertex 3 X-coordinate {m}
    6.750000000000,          !- Vertex 3 Y-coordinate {m}
    0.000000000000,          !- Vertex 3 Z-coordinate {m}
    -22.150000000000,        !- Vertex 4 X-coordinate {m}
    6.750000000000,          !- Vertex 4 Y-coordinate {m}
    15.450000000000;         !- Vertex 4 Z-coordinate {m}

Shading:Building:Detailed,
    84C8C3,                  !- Name
    ,                        !- Transmittance Schedule Name
    4,                       !- Number of Vertices
    -5.000000000000,         !- Vertex 1 X-coordinate {m}
    -6.750000000000,         !- Vertex 1 Y-coordinate {m}
    15.450000000000,         !- Vertex 1 Z-coordinate {m}
    -5.000000000000,         !- Vertex 2 X-coordinate {m}
    -6.750000000000,         !- Vertex 2 Y-coordinate {m}
    0.000000000000,          !- Vertex 2 Z-coordinate {m}
    -5.000000000000,         !- Vertex 3 X-coordinate {m}
    6.750000000000,          !- Vertex 3 Y-coordinate {m}
    0.000000000000,          !- Vertex 3 Z-coordinate {m}
    -5.000000000000,         !- Vertex 4 X-coordinate {m}
    6.750000000000,          !- Vertex 4 Y-coordinate {m}
    15.450000000000;         !- Vertex 4 Z-coordinate {m}

Shading:Building:Detailed,
    DBB2E8,                  !- Name
    ,                        !- Transmittance Schedule Name
    4,                       !- Number of Vertices
    -22.150000000000,        !- Vertex 1 X-coordinate {m}
    -6.750000000000,         !- Vertex 1 Y-coordinate {m}
    15.450000000000,         !- Vertex 1 Z-coordinate {m}
    -22.150000000000,        !- Vertex 2 X-coordinate {m}
    -6.750000000000,         !- Vertex 2 Y-coordinate {m}
    0.000000000000,          !- Vertex 2 Z-coordinate {m}
    -5.000000000000,         !- Vertex 3 X-coordinate {m}
    -6.750000000000,         !- Vertex 3 Y-coordinate {m}
    0.000000000000,          !- Vertex 3 Z-coordinate {m}
    -5.000000000000,         !- Vertex 4 X-coordinate {m}
    -6.750000000000,         !- Vertex 4 Y-coordinate {m}
    15.450000000000;         !- Vertex 4 Z-coordinate {m}

Shading:Building:Detailed,
    EBD2A9,                  !- Name
    ,                        !- Transmittance Schedule Name
    4,                       !- Number of Vertices
    -22.150000000000,        !- Vertex 1 X-coordinate {m}
    6.750000000000,          !- Vertex 1 Y-coordinate {m}
    15.450000000000,         !- Vertex 1 Z-coordinate {m}
    -22.150000000000,        !- Vertex 2 X-coordinate {m}
    -6.750000000000,         !- Vertex 2 Y-coordinate {m}
    15.450000000000,         !- Vertex 2 Z-coordinate {m}
    -5.000000000000,         !- Vertex 3 X-coordinate {m}
    -6.750000000000,         !- Vertex 3 Y-coordinate {m}
    15.450000000000,         !- Vertex 3 Z-coordinate {m}
    -5.000000000000,         !- Vertex 4 X-coordinate {m}
    6.750000000000,          !- Vertex 4 Y-coordinate {m}
    15.450000000000;         !- Vertex 4 Z-coordinate {m}

Shading:Building:Detailed,
    92883C,                  !- Name
    ,                        !- Transmittance Schedule Name
    4,                       !- Number of Vertices
    -5.000000000000,         !- Vertex 1 X-coordinate {m}
    6.750000000000,          !- Vertex 1 Y-coordinate {m}
    0.000000000000,          !- Vertex 1 Z-coordinate {m}
    -5.000000000000,         !- Vertex 2 X-coordinate {m}
    -6.750000000000,         !- Vertex 2 Y-coordinate {m}
    0.000000000000,          !- Vertex 2 Z-coordinate {m}
    -22.150000000000,        !- Vertex 3 X-coordinate {m}
    -6.750000000000,         !- Vertex 3 Y-coordinate {m}
    0.000000000000,          !- Vertex 3 Z-coordinate {m}
    -22.150000000000,        !- Vertex 4 X-coordinate {m}
    6.750000000000,          !- Vertex 4 Y-coordinate {m}
    0.000000000000;          !- Vertex 4 Z-coordinate {m}

Shading:Building:Detailed,
    745D2E,                  !- Name
    ,                        !- Transmittance Schedule Name
    4,                       !- Number of Vertices
    -22.150000000000,        !- Vertex 1 X-coordinate {m}
    6.750000000000,          !- Vertex 1 Y-coordinate {m}
    15.450000000000,         !- Vertex 1 Z-coordinate {m}
    -22.150000000000,        !- Vertex 2 X-coordinate {m}
    6.750000000000,          !- Vertex 2 Y-coordinate {m}
    0.000000000000,          !- Vertex 2 Z-coordinate {m}
    -22.150000000000,        !- Vertex 3 X-coordinate {m}
    -6.750000000000,         !- Vertex 3 Y-coordinate {m}
    0.000000000000,          !- Vertex 3 Z-coordinate {m}
    -22.150000000000,        !- Vertex 4 X-coordinate {m}
    -6.750000000000,         !- Vertex 4 Y-coordinate {m}
    15.450000000000;         !- Vertex 4 Z-coordinate {m}

Shading:Building:Detailed,
    F78E86,                  !- Name
    ,                        !- Transmittance Schedule Name
    4,                       !- Number of Vertices
    39.300000000000,         !- Vertex 1 X-coordinate {m}
    25.250000000000,         !- Vertex 1 Y-coordinate {m}
    15.450000000000,         !- Vertex 1 Z-coordinate {m}
    39.300000000000,         !- Vertex 2 X-coordinate {m}
    25.250000000000,         !- Vertex 2 Y-coordinate {m}
    0.000000000000,          !- Vertex 2 Z-coordinate {m}
    22.150000000000,         !- Vertex 3 X-coordinate {m}
    25.250000000000,         !- Vertex 3 Y-coordinate {m}
    0.000000000000,          !- Vertex 3 Z-coordinate {m}
    22.150000000000,         !- Vertex 4 X-coordinate {m}
    25.250000000000,         !- Vertex 4 Y-coordinate {m}
    15.450000000000;         !- Vertex 4 Z-coordinate {m}

Shading:Building:Detailed,
    B1443E,                  !- Name
    ,                        !- Transmittance Schedule Name
    4,                       !- Number of Vertices
    39.300000000000,         !- Vertex 1 X-coordinate {m}
    11.750000000000,         !- Vertex 1 Y-coordinate {m}
    15.450000000000,         !- Vertex 1 Z-coordinate {m}
    39.300000000000,         !- Vertex 2 X-coordinate {m}
    11.750000000000,         !- Vertex 2 Y-coordinate {m}
    0.000000000000,          !- Vertex 2 Z-coordinate {m}
    39.300000000000,         !- Vertex 3 X-coordinate {m}
    25.250000000000,         !- Vertex 3 Y-coordinate {m}
    0.000000000000,          !- Vertex 3 Z-coordinate {m}
    39.300000000000,         !- Vertex 4 X-coordinate {m}
    25.250000000000,         !- Vertex 4 Y-coordinate {m}
    15.450000000000;         !- Vertex 4 Z-coordinate {m}

Shading:Building:Detailed,
    E85389,                  !- Name
    ,                        !- Transmittance Schedule Name
    4,                       !- Number of Vertices
    22.150000000000,         !- Vertex 1 X-coordinate {m}
    11.750000000000,         !- Vertex 1 Y-coordinate {m}
    15.450000000000,         !- Vertex 1 Z-coordinate {m}
    22.150000000000,         !- Vertex 2 X-coordinate {m}
    11.750000000000,         !- Vertex 2 Y-coordinate {m}
    0.000000000000,          !- Vertex 2 Z-coordinate {m}
    39.300000000000,         !- Vertex 3 X-coordinate {m}
    11.750000000000,         !- Vertex 3 Y-coordinate {m}
    0.000000000000,          !- Vertex 3 Z-coordinate {m}
    39.300000000000,         !- Vertex 4 X-coordinate {m}
    11.750000000000,         !- Vertex 4 Y-coordinate {m}
    15.450000000000;         !- Vertex 4 Z-coordinate {m}

Shading:Building:Detailed,
    A1C20C,                  !- Name
    ,                        !- Transmittance Schedule Name
    4,                       !- Number of Vertices
    22.150000000000,         !- Vertex 1 X-coordinate {m}
    25.250000000000,         !- Vertex 1 Y-coordinate {m}
    15.450000000000,         !- Vertex 1 Z-coordinate {m}
    22.150000000000,         !- Vertex 2 X-coordinate {m}
    11.750000000000,         !- Vertex 2 Y-coordinate {m}
    15.450000000000,         !- Vertex 2 Z-coordinate {m}
    39.300000000000,         !- Vertex 3 X-coordinate {m}
    11.750000000000,         !- Vertex 3 Y-coordinate {m}
    15.450000000000,         !- Vertex 3 Z-coordinate {m}
    39.300000000000,         !- Vertex 4 X-coordinate {m}
    25.250000000000,         !- Vertex 4 Y-coordinate {m}
    15.450000000000;         !- Vertex 4 Z-coordinate {m}

Shading:Building:Detailed,
    33423F,                  !- Name
    ,                        !- Transmittance Schedule Name
    4,                       !- Number of Vertices
    39.300000000000,         !- Vertex 1 X-coordinate {m}
    25.250000000000,         !- Vertex 1 Y-coordinate {m}
    0.000000000000,          !- Vertex 1 Z-coordinate {m}
    39.300000000000,         !- Vertex 2 X-coordinate {m}
    11.750000000000,         !- Vertex 2 Y-coordinate {m}
    0.000000000000,          !- Vertex 2 Z-coordinate {m}
    22.150000000000,         !- Vertex 3 X-coordinate {m}
    11.750000000000,         !- Vertex 3 Y-coordinate {m}
    0.000000000000,          !- Vertex 3 Z-coordinate {m}
    22.150000000000,         !- Vertex 4 X-coordinate {m}
    25.250000000000,         !- Vertex 4 Y-coordinate {m}
    0.000000000000;          !- Vertex 4 Z-coordinate {m}

Shading:Building:Detailed,
    FDF3CF,                  !- Name
    ,                        !- Transmittance Schedule Name
    4,                       !- Number of Vertices
    22.150000000000,         !- Vertex 1 X-coordinate {m}
    25.250000000000,         !- Vertex 1 Y-coordinate {m}
    15.450000000000,         !- Vertex 1 Z-coordinate {m}
    22.150000000000,         !- Vertex 2 X-coordinate {m}
    25.250000000000,         !- Vertex 2 Y-coordinate {m}
    0.000000000000,          !- Vertex 2 Z-coordinate {m}
    22.150000000000,         !- Vertex 3 X-coordinate {m}
    11.750000000000,         !- Vertex 3 Y-coordinate {m}
    0.000000000000,          !- Vertex 3 Z-coordinate {m}
    22.150000000000,         !- Vertex 4 X-coordinate {m}
    11.750000000000,         !- Vertex 4 Y-coordinate {m}
    15.450000000000;         !- Vertex 4 Z-coordinate {m}

Shading:Building:Detailed,
    F11CC3,                  !- Name
    ,                        !- Transmittance Schedule Name
    4,                       !- Number of Vertices
    -5.000000000000,         !- Vertex 1 X-coordinate {m}
    25.250000000000,         !- Vertex 1 Y-coordinate {m}
    15.450000000000,         !- Vertex 1 Z-coordinate {m}
    -5.000000000000,         !- Vertex 2 X-coordinate {m}
    25.250000000000,         !- Vertex 2 Y-coordinate {m}
    0.000000000000,          !- Vertex 2 Z-coordinate {m}
    -22.150000000000,        !- Vertex 3 X-coordinate {m}
    25.250000000000,         !- Vertex 3 Y-coordinate {m}
    0.000000000000,          !- Vertex 3 Z-coordinate {m}
    -22.150000000000,        !- Vertex 4 X-coordinate {m}
    25.250000000000,         !- Vertex 4 Y-coordinate {m}
    15.450000000000;         !- Vertex 4 Z-coordinate {m}

Shading:Building:Detailed,
    C789C1,                  !- Name
    ,                        !- Transmittance Schedule Name
    4,                       !- Number of Vertices
    -5.000000000000,         !- Vertex 1 X-coordinate {m}
    11.750000000000,         !- Vertex 1 Y-coordinate {m}
    15.450000000000,         !- Vertex 1 Z-coordinate {m}
    -5.000000000000,         !- Vertex 2 X-coordinate {m}
    11.750000000000,         !- Vertex 2 Y-coordinate {m}
    0.000000000000,          !- Vertex 2 Z-coordinate {m}
    -5.000000000000,         !- Vertex 3 X-coordinate {m}
    25.250000000000,         !- Vertex 3 Y-coordinate {m}
    0.000000000000,          !- Vertex 3 Z-coordinate {m}
    -5.000000000000,         !- Vertex 4 X-coordinate {m}
    25.250000000000,         !- Vertex 4 Y-coordinate {m}
    15.450000000000;         !- Vertex 4 Z-coordinate {m}

Shading:Building:Detailed,
    830055,                  !- Name
    ,                        !- Transmittance Schedule Name
    4,                       !- Number of Vertices
    -22.150000000000,        !- Vertex 1 X-coordinate {m}
    11.750000000000,         !- Vertex 1 Y-coordinate {m}
    15.450000000000,         !- Vertex 1 Z-coordinate {m}
    -22.150000000000,        !- Vertex 2 X-coordinate {m}
    11.750000000000,         !- Vertex 2 Y-coordinate {m}
    0.000000000000,          !- Vertex 2 Z-coordinate {m}
    -5.000000000000,         !- Vertex 3 X-coordinate {m}
    11.750000000000,         !- Vertex 3 Y-coordinate {m}
    0.000000000000,          !- Vertex 3 Z-coordinate {m}
    -5.000000000000,         !- Vertex 4 X-coordinate {m}
    11.750000000000,         !- Vertex 4 Y-coordinate {m}
    15.450000000000;         !- Vertex 4 Z-coordinate {m}

Shading:Building:Detailed,
    C99203,                  !- Name
    ,                        !- Transmittance Schedule Name
    4,                       !- Number of Vertices
    -22.150000000000,        !- Vertex 1 X-coordinate {m}
    25.250000000000,         !- Vertex 1 Y-coordinate {m}
    15.450000000000,         !- Vertex 1 Z-coordinate {m}
    -22.150000000000,        !- Vertex 2 X-coordinate {m}
    11.750000000000,         !- Vertex 2 Y-coordinate {m}
    15.450000000000,         !- Vertex 2 Z-coordinate {m}
    -5.000000000000,         !- Vertex 3 X-coordinate {m}
    11.750000000000,         !- Vertex 3 Y-coordinate {m}
    15.450000000000,         !- Vertex 3 Z-coordinate {m}
    -5.000000000000,         !- Vertex 4 X-coordinate {m}
    25.250000000000,         !- Vertex 4 Y-coordinate {m}
    15.450000000000;         !- Vertex 4 Z-coordinate {m}

Shading:Building:Detailed,
    95674B,                  !- Name
    ,                        !- Transmittance Schedule Name
    4,                       !- Number of Vertices
    -5.000000000000,         !- Vertex 1 X-coordinate {m}
    25.250000000000,         !- Vertex 1 Y-coordinate {m}
    0.000000000000,          !- Vertex 1 Z-coordinate {m}
    -5.000000000000,         !- Vertex 2 X-coordinate {m}
    11.750000000000,         !- Vertex 2 Y-coordinate {m}
    0.000000000000,          !- Vertex 2 Z-coordinate {m}
    -22.150000000000,        !- Vertex 3 X-coordinate {m}
    11.750000000000,         !- Vertex 3 Y-coordinate {m}
    0.000000000000,          !- Vertex 3 Z-coordinate {m}
    -22.150000000000,        !- Vertex 4 X-coordinate {m}
    25.250000000000,         !- Vertex 4 Y-coordinate {m}
    0.000000000000;          !- Vertex 4 Z-coordinate {m}

Shading:Building:Detailed,
    48C294,                  !- Name
    ,                        !- Transmittance Schedule Name
    4,                       !- Number of Vertices
    -22.150000000000,        !- Vertex 1 X-coordinate {m}
    25.250000000000,         !- Vertex 1 Y-coordinate {m}
    15.450000000000,         !- Vertex 1 Z-coordinate {m}
    -22.150000000000,        !- Vertex 2 X-coordinate {m}
    25.250000000000,         !- Vertex 2 Y-coordinate {m}
    0.000000000000,          !- Vertex 2 Z-coordinate {m}
    -22.150000000000,        !- Vertex 3 X-coordinate {m}
    11.750000000000,         !- Vertex 3 Y-coordinate {m}
    0.000000000000,          !- Vertex 3 Z-coordinate {m}
    -22.150000000000,        !- Vertex 4 X-coordinate {m}
    11.750000000000,         !- Vertex 4 Y-coordinate {m}
    15.450000000000;         !- Vertex 4 Z-coordinate {m}

Shading:Building:Detailed,
    793DE1,                  !- Name
    ,                        !- Transmittance Schedule Name
    4,                       !- Number of Vertices
    17.150000000000,         !- Vertex 1 X-coordinate {m}
    25.250000000000,         !- Vertex 1 Y-coordinate {m}
    15.450000000000,         !- Vertex 1 Z-coordinate {m}
    17.150000000000,         !- Vertex 2 X-coordinate {m}
    25.250000000000,         !- Vertex 2 Y-coordinate {m}
    0.000000000000,          !- Vertex 2 Z-coordinate {m}
    0.000000000000,          !- Vertex 3 X-coordinate {m}
    25.250000000000,         !- Vertex 3 Y-coordinate {m}
    0.000000000000,          !- Vertex 3 Z-coordinate {m}
    0.000000000000,          !- Vertex 4 X-coordinate {m}
    25.250000000000,         !- Vertex 4 Y-coordinate {m}
    15.450000000000;         !- Vertex 4 Z-coordinate {m}

Shading:Building:Detailed,
    F3F878,                  !- Name
    ,                        !- Transmittance Schedule Name
    4,                       !- Number of Vertices
    17.150000000000,         !- Vertex 1 X-coordinate {m}
    11.750000000000,         !- Vertex 1 Y-coordinate {m}
    15.450000000000,         !- Vertex 1 Z-coordinate {m}
    17.150000000000,         !- Vertex 2 X-coordinate {m}
    11.750000000000,         !- Vertex 2 Y-coordinate {m}
    0.000000000000,          !- Vertex 2 Z-coordinate {m}
    17.150000000000,         !- Vertex 3 X-coordinate {m}
    25.250000000000,         !- Vertex 3 Y-coordinate {m}
    0.000000000000,          !- Vertex 3 Z-coordinate {m}
    17.150000000000,         !- Vertex 4 X-coordinate {m}
    25.250000000000,         !- Vertex 4 Y-coordinate {m}
    15.450000000000;         !- Vertex 4 Z-coordinate {m}

Shading:Building:Detailed,
    610134,                  !- Name
    ,                        !- Transmittance Schedule Name
    4,                       !- Number of Vertices
    0.000000000000,          !- Vertex 1 X-coordinate {m}
    11.750000000000,         !- Vertex 1 Y-coordinate {m}
    15.450000000000,         !- Vertex 1 Z-coordinate {m}
    0.000000000000,          !- Vertex 2 X-coordinate {m}
    11.750000000000,         !- Vertex 2 Y-coordinate {m}
    0.000000000000,          !- Vertex 2 Z-coordinate {m}
    17.150000000000,         !- Vertex 3 X-coordinate {m}
    11.750000000000,         !- Vertex 3 Y-coordinate {m}
    0.000000000000,          !- Vertex 3 Z-coordinate {m}
    17.150000000000,         !- Vertex 4 X-coordinate {m}
    11.750000000000,         !- Vertex 4 Y-coordinate {m}
    15.450000000000;         !- Vertex 4 Z-coordinate {m}

Shading:Building:Detailed,
    73A5DD,                  !- Name
    ,                        !- Transmittance Schedule Name
    4,                       !- Number of Vertices
    0.000000000000,          !- Vertex 1 X-coordinate {m}
    25.250000000000,         !- Vertex 1 Y-coordinate {m}
    15.450000000000,         !- Vertex 1 Z-coordinate {m}
    0.000000000000,          !- Vertex 2 X-coordinate {m}
    11.750000000000,         !- Vertex 2 Y-coordinate {m}
    15.450000000000,         !- Vertex 2 Z-coordinate {m}
    17.150000000000,         !- Vertex 3 X-coordinate {m}
    11.750000000000,         !- Vertex 3 Y-coordinate {m}
    15.450000000000,         !- Vertex 3 Z-coordinate {m}
    17.150000000000,         !- Vertex 4 X-coordinate {m}
    25.250000000000,         !- Vertex 4 Y-coordinate {m}
    15.450000000000;         !- Vertex 4 Z-coordinate {m}

Shading:Building:Detailed,
    92B968,                  !- Name
    ,                        !- Transmittance Schedule Name
    4,                       !- Number of Vertices
    17.150000000000,         !- Vertex 1 X-coordinate {m}
    25.250000000000,         !- Vertex 1 Y-coordinate {m}
    0.000000000000,          !- Vertex 1 Z-coordinate {m}
    17.150000000000,         !- Vertex 2 X-coordinate {m}
    11.750000000000,         !- Vertex 2 Y-coordinate {m}
    0.000000000000,          !- Vertex 2 Z-coordinate {m}
    0.000000000000,          !- Vertex 3 X-coordinate {m}
    11.750000000000,         !- Vertex 3 Y-coordinate {m}
    0.000000000000,          !- Vertex 3 Z-coordinate {m}
    0.000000000000,          !- Vertex 4 X-coordinate {m}
    25.250000000000,         !- Vertex 4 Y-coordinate {m}
    0.000000000000;          !- Vertex 4 Z-coordinate {m}

Shading:Building:Detailed,
    CDB2DF,                  !- Name
    ,                        !- Transmittance Schedule Name
    4,                       !- Number of Vertices
    0.000000000000,          !- Vertex 1 X-coordinate {m}
    25.250000000000,         !- Vertex 1 Y-coordinate {m}
    15.450000000000,         !- Vertex 1 Z-coordinate {m}
    0.000000000000,          !- Vertex 2 X-coordinate {m}
    25.250000000000,         !- Vertex 2 Y-coordinate {m}
    0.000000000000,          !- Vertex 2 Z-coordinate {m}
    0.000000000000,          !- Vertex 3 X-coordinate {m}
    11.750000000000,         !- Vertex 3 Y-coordinate {m}
    0.000000000000,          !- Vertex 3 Z-coordinate {m}
    0.000000000000,          !- Vertex 4 X-coordinate {m}
    11.750000000000,         !- Vertex 4 Y-coordinate {m}
    15.450000000000;         !- Vertex 4 Z-coordinate {m}


!-   ===========  ALL OBJECTS IN CLASS: PEOPLE ===========

People,
    Ocupation,               !- Name
    TodosAps,                !- Zone or ZoneList Name
    TLB Occupation Schedule, !- Number of People Schedule Name
    People,                  !- Number of People Calculation Method
    4,                       !- Number of People
    ,                        !- People per Zone Floor Area {person/m2}
    ,                        !- Zone Floor Area per Person {m2/person}
    0.3,                     !- Fraction Radiant
    autocalculate,           !- Sensible Heat Fraction
    TBL Activities,          !- Activity Level Schedule Name
    3.82e-08,                !- Carbon Dioxide Generation Rate {m3/s-W}
    No,                      !- Enable ASHRAE 55 Comfort Warnings
    ZoneAveraged,            !- Mean Radiant Temperature Calculation Type
    ,                        !- Surface Name/Angle Factor List Name
    ,                        !- Work Efficiency Schedule Name
    DynamicClothingModelASHRAE55,  !- Clothing Insulation Calculation Method
    ,                        !- Clothing Insulation Calculation Method Schedule Name
    ,                        !- Clothing Insulation Schedule Name
    ,                        !- Air Velocity Schedule Name
    AdaptiveASH55;           !- Thermal Comfort Model 1 Type


!-   ===========  ALL OBJECTS IN CLASS: LIGHTS ===========

Lights,
    Ilumination,             !- Name
    TodosAps,                !- Zone or ZoneList Name
    TLB Ilumination Schedule,!- Schedule Name
    Watts/Area,              !- Design Level Calculation Method
    ,                        !- Lighting Level {W}
    5,                       !- Watts per Zone Floor Area {W/m2}
    ,                        !- Watts per Person {W/person}
    0,                       !- Return Air Fraction
    0.32,                    !- Fraction Radiant
    0.23,                    !- Fraction Visible
    0,                       !- Fraction Replaceable
    General,                 !- End-Use Subcategory
    No;                      !- Return Air Fraction Calculated from Plenum Temperature


!-   ===========  ALL OBJECTS IN CLASS: ELECTRICEQUIPMENT ===========

ElectricEquipment,
    Equipments,              !- Name
    TodosAps,                !- Zone or ZoneList Name
    TLB INI-R Equipments,    !- Schedule Name
    EquipmentLevel,          !- Design Level Calculation Method
    120,                     !- Design Level {W}
    0,                       !- Watts per Zone Floor Area {W/m2}
    ,                        !- Watts per Person {W/person}
    0,                       !- Fraction Latent
    0.3,                     !- Fraction Radiant
    0,                       !- Fraction Lost
    General;                 !- End-Use Subcategory


!-   ===========  ALL OBJECTS IN CLASS: AIRFLOWNETWORK:SIMULATIONCONTROL ===========

AirflowNetwork:SimulationControl,
    INI-R,                   !- Name
    MultizoneWithoutDistribution,  !- AirflowNetwork Control
    SurfaceAverageCalculation,  !- Wind Pressure Coefficient Type
    OpeningHeight,           !- Height Selection for Local Wind Pressure Calculation
    LowRise,                 !- Building Type
    500,                     !- Maximum Number of Iterations {dimensionless}
    LinearInitializationMethod,  !- Initialization Type
    0.0001,                  !- Relative Airflow Convergence Tolerance {dimensionless}
    0.000001,                !- Absolute Airflow Convergence Tolerance {kg/s}
    -.5,                     !- Convergence Acceleration Limit {dimensionless}
    0,                       !- Azimuth Angle of Long Axis of Building {deg}
    0.78;                    !- Ratio of Building Width Along Short Axis to Width Along Long Axis


!-   ===========  ALL OBJECTS IN CLASS: AIRFLOWNETWORK:MULTIZONE:ZONE ===========

AirflowNetwork:MultiZone:Zone,
    APTO01_P1,               !- Zone Name
    Temperature,             !- Ventilation Control Mode
    VN_19,                   !- Ventilation Control Zone Temperature Setpoint Schedule Name
    0.45,                    !- Minimum Venting Open Factor {dimensionless}
    0,                       !- Indoor and Outdoor Temperature Difference Lower Limit For Maximum Venting Open Factor {deltaC}
    5,                       !- Indoor and Outdoor Temperature Difference Upper Limit for Minimum Venting Open Factor {deltaC}
    0,                       !- Indoor and Outdoor Enthalpy Difference Lower Limit For Maximum Venting Open Factor {deltaJ/kg}
    300000,                  !- Indoor and Outdoor Enthalpy Difference Upper Limit for Minimum Venting Open Factor {deltaJ/kg}
    TLB Occupation Schedule, !- Venting Availability Schedule Name
    Standard,                !- Single Sided Wind Pressure Coefficient Algorithm
    17.15;                   !- Facade Width {m}

AirflowNetwork:MultiZone:Zone,
    APTO02_P1,               !- Zone Name
    Temperature,             !- Ventilation Control Mode
    VN_19,                   !- Ventilation Control Zone Temperature Setpoint Schedule Name
    0.45,                    !- Minimum Venting Open Factor {dimensionless}
    0,                       !- Indoor and Outdoor Temperature Difference Lower Limit For Maximum Venting Open Factor {deltaC}
    5,                       !- Indoor and Outdoor Temperature Difference Upper Limit for Minimum Venting Open Factor {deltaC}
    0,                       !- Indoor and Outdoor Enthalpy Difference Lower Limit For Maximum Venting Open Factor {deltaJ/kg}
    300000,                  !- Indoor and Outdoor Enthalpy Difference Upper Limit for Minimum Venting Open Factor {deltaJ/kg}
    TLB Occupation Schedule, !- Venting Availability Schedule Name
    Standard,                !- Single Sided Wind Pressure Coefficient Algorithm
    17.15;                   !- Facade Width {m}

AirflowNetwork:MultiZone:Zone,
    APTO03_P1,               !- Zone Name
    Temperature,             !- Ventilation Control Mode
    VN_19,                   !- Ventilation Control Zone Temperature Setpoint Schedule Name
    0.45,                    !- Minimum Venting Open Factor {dimensionless}
    0,                       !- Indoor and Outdoor Temperature Difference Lower Limit For Maximum Venting Open Factor {deltaC}
    5,                       !- Indoor and Outdoor Temperature Difference Upper Limit for Minimum Venting Open Factor {deltaC}
    0,                       !- Indoor and Outdoor Enthalpy Difference Lower Limit For Maximum Venting Open Factor {deltaJ/kg}
    300000,                  !- Indoor and Outdoor Enthalpy Difference Upper Limit for Minimum Venting Open Factor {deltaJ/kg}
    TLB Occupation Schedule, !- Venting Availability Schedule Name
    Standard,                !- Single Sided Wind Pressure Coefficient Algorithm
    17.15;                   !- Facade Width {m}

AirflowNetwork:MultiZone:Zone,
    APTO04_P1,               !- Zone Name
    Temperature,             !- Ventilation Control Mode
    VN_19,                   !- Ventilation Control Zone Temperature Setpoint Schedule Name
    0.45,                    !- Minimum Venting Open Factor {dimensionless}
    0,                       !- Indoor and Outdoor Temperature Difference Lower Limit For Maximum Venting Open Factor {deltaC}
    5,                       !- Indoor and Outdoor Temperature Difference Upper Limit for Minimum Venting Open Factor {deltaC}
    0,                       !- Indoor and Outdoor Enthalpy Difference Lower Limit For Maximum Venting Open Factor {deltaJ/kg}
    300000,                  !- Indoor and Outdoor Enthalpy Difference Upper Limit for Minimum Venting Open Factor {deltaJ/kg}
    TLB Occupation Schedule, !- Venting Availability Schedule Name
    Standard,                !- Single Sided Wind Pressure Coefficient Algorithm
    17.15;                   !- Facade Width {m}

AirflowNetwork:MultiZone:Zone,
    APTO01_P2,               !- Zone Name
    Temperature,             !- Ventilation Control Mode
    VN_19,                   !- Ventilation Control Zone Temperature Setpoint Schedule Name
    0.45,                    !- Minimum Venting Open Factor {dimensionless}
    0,                       !- Indoor and Outdoor Temperature Difference Lower Limit For Maximum Venting Open Factor {deltaC}
    5,                       !- Indoor and Outdoor Temperature Difference Upper Limit for Minimum Venting Open Factor {deltaC}
    0,                       !- Indoor and Outdoor Enthalpy Difference Lower Limit For Maximum Venting Open Factor {deltaJ/kg}
    300000,                  !- Indoor and Outdoor Enthalpy Difference Upper Limit for Minimum Venting Open Factor {deltaJ/kg}
    TLB Occupation Schedule, !- Venting Availability Schedule Name
    Standard,                !- Single Sided Wind Pressure Coefficient Algorithm
    17.15;                   !- Facade Width {m}

AirflowNetwork:MultiZone:Zone,
    APTO02_P2,               !- Zone Name
    Temperature,             !- Ventilation Control Mode
    VN_19,                   !- Ventilation Control Zone Temperature Setpoint Schedule Name
    0.45,                    !- Minimum Venting Open Factor {dimensionless}
    0,                       !- Indoor and Outdoor Temperature Difference Lower Limit For Maximum Venting Open Factor {deltaC}
    5,                       !- Indoor and Outdoor Temperature Difference Upper Limit for Minimum Venting Open Factor {deltaC}
    0,                       !- Indoor and Outdoor Enthalpy Difference Lower Limit For Maximum Venting Open Factor {deltaJ/kg}
    300000,                  !- Indoor and Outdoor Enthalpy Difference Upper Limit for Minimum Venting Open Factor {deltaJ/kg}
    TLB Occupation Schedule, !- Venting Availability Schedule Name
    Standard,                !- Single Sided Wind Pressure Coefficient Algorithm
    17.15;                   !- Facade Width {m}

AirflowNetwork:MultiZone:Zone,
    APTO03_P2,               !- Zone Name
    Temperature,             !- Ventilation Control Mode
    VN_19,                   !- Ventilation Control Zone Temperature Setpoint Schedule Name
    0.45,                    !- Minimum Venting Open Factor {dimensionless}
    0,                       !- Indoor and Outdoor Temperature Difference Lower Limit For Maximum Venting Open Factor {deltaC}
    5,                       !- Indoor and Outdoor Temperature Difference Upper Limit for Minimum Venting Open Factor {deltaC}
    0,                       !- Indoor and Outdoor Enthalpy Difference Lower Limit For Maximum Venting Open Factor {deltaJ/kg}
    300000,                  !- Indoor and Outdoor Enthalpy Difference Upper Limit for Minimum Venting Open Factor {deltaJ/kg}
    TLB Occupation Schedule, !- Venting Availability Schedule Name
    Standard,                !- Single Sided Wind Pressure Coefficient Algorithm
    17.15;                   !- Facade Width {m}

AirflowNetwork:MultiZone:Zone,
    APTO04_P2,               !- Zone Name
    Temperature,             !- Ventilation Control Mode
    VN_19,                   !- Ventilation Control Zone Temperature Setpoint Schedule Name
    0.45,                    !- Minimum Venting Open Factor {dimensionless}
    0,                       !- Indoor and Outdoor Temperature Difference Lower Limit For Maximum Venting Open Factor {deltaC}
    5,                       !- Indoor and Outdoor Temperature Difference Upper Limit for Minimum Venting Open Factor {deltaC}
    0,                       !- Indoor and Outdoor Enthalpy Difference Lower Limit For Maximum Venting Open Factor {deltaJ/kg}
    300000,                  !- Indoor and Outdoor Enthalpy Difference Upper Limit for Minimum Venting Open Factor {deltaJ/kg}
    TLB Occupation Schedule, !- Venting Availability Schedule Name
    Standard,                !- Single Sided Wind Pressure Coefficient Algorithm
    17.15;                   !- Facade Width {m}

AirflowNetwork:MultiZone:Zone,
    APTO01_P3,               !- Zone Name
    Temperature,             !- Ventilation Control Mode
    VN_19,                   !- Ventilation Control Zone Temperature Setpoint Schedule Name
    0.45,                    !- Minimum Venting Open Factor {dimensionless}
    0,                       !- Indoor and Outdoor Temperature Difference Lower Limit For Maximum Venting Open Factor {deltaC}
    5,                       !- Indoor and Outdoor Temperature Difference Upper Limit for Minimum Venting Open Factor {deltaC}
    0,                       !- Indoor and Outdoor Enthalpy Difference Lower Limit For Maximum Venting Open Factor {deltaJ/kg}
    300000,                  !- Indoor and Outdoor Enthalpy Difference Upper Limit for Minimum Venting Open Factor {deltaJ/kg}
    TLB Occupation Schedule, !- Venting Availability Schedule Name
    Standard,                !- Single Sided Wind Pressure Coefficient Algorithm
    17.15;                   !- Facade Width {m}

AirflowNetwork:MultiZone:Zone,
    APTO02_P3,               !- Zone Name
    Temperature,             !- Ventilation Control Mode
    VN_19,                   !- Ventilation Control Zone Temperature Setpoint Schedule Name
    0.45,                    !- Minimum Venting Open Factor {dimensionless}
    0,                       !- Indoor and Outdoor Temperature Difference Lower Limit For Maximum Venting Open Factor {deltaC}
    5,                       !- Indoor and Outdoor Temperature Difference Upper Limit for Minimum Venting Open Factor {deltaC}
    0,                       !- Indoor and Outdoor Enthalpy Difference Lower Limit For Maximum Venting Open Factor {deltaJ/kg}
    300000,                  !- Indoor and Outdoor Enthalpy Difference Upper Limit for Minimum Venting Open Factor {deltaJ/kg}
    TLB Occupation Schedule, !- Venting Availability Schedule Name
    Standard,                !- Single Sided Wind Pressure Coefficient Algorithm
    17.15;                   !- Facade Width {m}

AirflowNetwork:MultiZone:Zone,
    APTO03_P3,               !- Zone Name
    Temperature,             !- Ventilation Control Mode
    VN_19,                   !- Ventilation Control Zone Temperature Setpoint Schedule Name
    0.45,                    !- Minimum Venting Open Factor {dimensionless}
    0,                       !- Indoor and Outdoor Temperature Difference Lower Limit For Maximum Venting Open Factor {deltaC}
    5,                       !- Indoor and Outdoor Temperature Difference Upper Limit for Minimum Venting Open Factor {deltaC}
    0,                       !- Indoor and Outdoor Enthalpy Difference Lower Limit For Maximum Venting Open Factor {deltaJ/kg}
    300000,                  !- Indoor and Outdoor Enthalpy Difference Upper Limit for Minimum Venting Open Factor {deltaJ/kg}
    TLB Occupation Schedule, !- Venting Availability Schedule Name
    Standard,                !- Single Sided Wind Pressure Coefficient Algorithm
    17.15;                   !- Facade Width {m}

AirflowNetwork:MultiZone:Zone,
    APTO04_P3,               !- Zone Name
    Temperature,             !- Ventilation Control Mode
    VN_19,                   !- Ventilation Control Zone Temperature Setpoint Schedule Name
    0.45,                    !- Minimum Venting Open Factor {dimensionless}
    0,                       !- Indoor and Outdoor Temperature Difference Lower Limit For Maximum Venting Open Factor {deltaC}
    5,                       !- Indoor and Outdoor Temperature Difference Upper Limit for Minimum Venting Open Factor {deltaC}
    0,                       !- Indoor and Outdoor Enthalpy Difference Lower Limit For Maximum Venting Open Factor {deltaJ/kg}
    300000,                  !- Indoor and Outdoor Enthalpy Difference Upper Limit for Minimum Venting Open Factor {deltaJ/kg}
    TLB Occupation Schedule, !- Venting Availability Schedule Name
    Standard,                !- Single Sided Wind Pressure Coefficient Algorithm
    17.15;                   !- Facade Width {m}

AirflowNetwork:MultiZone:Zone,
    APTO01_P4,               !- Zone Name
    Temperature,             !- Ventilation Control Mode
    VN_19,                   !- Ventilation Control Zone Temperature Setpoint Schedule Name
    0.45,                    !- Minimum Venting Open Factor {dimensionless}
    0,                       !- Indoor and Outdoor Temperature Difference Lower Limit For Maximum Venting Open Factor {deltaC}
    5,                       !- Indoor and Outdoor Temperature Difference Upper Limit for Minimum Venting Open Factor {deltaC}
    0,                       !- Indoor and Outdoor Enthalpy Difference Lower Limit For Maximum Venting Open Factor {deltaJ/kg}
    300000,                  !- Indoor and Outdoor Enthalpy Difference Upper Limit for Minimum Venting Open Factor {deltaJ/kg}
    TLB Occupation Schedule, !- Venting Availability Schedule Name
    Standard,                !- Single Sided Wind Pressure Coefficient Algorithm
    17.15;                   !- Facade Width {m}

AirflowNetwork:MultiZone:Zone,
    APTO02_P4,               !- Zone Name
    Temperature,             !- Ventilation Control Mode
    VN_19,                   !- Ventilation Control Zone Temperature Setpoint Schedule Name
    0.45,                    !- Minimum Venting Open Factor {dimensionless}
    0,                       !- Indoor and Outdoor Temperature Difference Lower Limit For Maximum Venting Open Factor {deltaC}
    5,                       !- Indoor and Outdoor Temperature Difference Upper Limit for Minimum Venting Open Factor {deltaC}
    0,                       !- Indoor and Outdoor Enthalpy Difference Lower Limit For Maximum Venting Open Factor {deltaJ/kg}
    300000,                  !- Indoor and Outdoor Enthalpy Difference Upper Limit for Minimum Venting Open Factor {deltaJ/kg}
    TLB Occupation Schedule, !- Venting Availability Schedule Name
    Standard,                !- Single Sided Wind Pressure Coefficient Algorithm
    17.15;                   !- Facade Width {m}

AirflowNetwork:MultiZone:Zone,
    APTO03_P4,               !- Zone Name
    Temperature,             !- Ventilation Control Mode
    VN_19,                   !- Ventilation Control Zone Temperature Setpoint Schedule Name
    0.45,                    !- Minimum Venting Open Factor {dimensionless}
    0,                       !- Indoor and Outdoor Temperature Difference Lower Limit For Maximum Venting Open Factor {deltaC}
    5,                       !- Indoor and Outdoor Temperature Difference Upper Limit for Minimum Venting Open Factor {deltaC}
    0,                       !- Indoor and Outdoor Enthalpy Difference Lower Limit For Maximum Venting Open Factor {deltaJ/kg}
    300000,                  !- Indoor and Outdoor Enthalpy Difference Upper Limit for Minimum Venting Open Factor {deltaJ/kg}
    TLB Occupation Schedule, !- Venting Availability Schedule Name
    Standard,                !- Single Sided Wind Pressure Coefficient Algorithm
    17.15;                   !- Facade Width {m}

AirflowNetwork:MultiZone:Zone,
    APTO04_P4,               !- Zone Name
    Temperature,             !- Ventilation Control Mode
    VN_19,                   !- Ventilation Control Zone Temperature Setpoint Schedule Name
    0.45,                    !- Minimum Venting Open Factor {dimensionless}
    0,                       !- Indoor and Outdoor Temperature Difference Lower Limit For Maximum Venting Open Factor {deltaC}
    5,                       !- Indoor and Outdoor Temperature Difference Upper Limit for Minimum Venting Open Factor {deltaC}
    0,                       !- Indoor and Outdoor Enthalpy Difference Lower Limit For Maximum Venting Open Factor {deltaJ/kg}
    300000,                  !- Indoor and Outdoor Enthalpy Difference Upper Limit for Minimum Venting Open Factor {deltaJ/kg}
    TLB Occupation Schedule, !- Venting Availability Schedule Name
    Standard,                !- Single Sided Wind Pressure Coefficient Algorithm
    17.15;                   !- Facade Width {m}

AirflowNetwork:MultiZone:Zone,
    APTO01_P5,               !- Zone Name
    Temperature,             !- Ventilation Control Mode
    VN_19,                   !- Ventilation Control Zone Temperature Setpoint Schedule Name
    0.45,                    !- Minimum Venting Open Factor {dimensionless}
    0,                       !- Indoor and Outdoor Temperature Difference Lower Limit For Maximum Venting Open Factor {deltaC}
    5,                       !- Indoor and Outdoor Temperature Difference Upper Limit for Minimum Venting Open Factor {deltaC}
    0,                       !- Indoor and Outdoor Enthalpy Difference Lower Limit For Maximum Venting Open Factor {deltaJ/kg}
    300000,                  !- Indoor and Outdoor Enthalpy Difference Upper Limit for Minimum Venting Open Factor {deltaJ/kg}
    TLB Occupation Schedule, !- Venting Availability Schedule Name
    Standard,                !- Single Sided Wind Pressure Coefficient Algorithm
    17.15;                   !- Facade Width {m}

AirflowNetwork:MultiZone:Zone,
    APTO02_P5,               !- Zone Name
    Temperature,             !- Ventilation Control Mode
    VN_19,                   !- Ventilation Control Zone Temperature Setpoint Schedule Name
    0.45,                    !- Minimum Venting Open Factor {dimensionless}
    0,                       !- Indoor and Outdoor Temperature Difference Lower Limit For Maximum Venting Open Factor {deltaC}
    5,                       !- Indoor and Outdoor Temperature Difference Upper Limit for Minimum Venting Open Factor {deltaC}
    0,                       !- Indoor and Outdoor Enthalpy Difference Lower Limit For Maximum Venting Open Factor {deltaJ/kg}
    300000,                  !- Indoor and Outdoor Enthalpy Difference Upper Limit for Minimum Venting Open Factor {deltaJ/kg}
    TLB Occupation Schedule, !- Venting Availability Schedule Name
    Standard,                !- Single Sided Wind Pressure Coefficient Algorithm
    17.15;                   !- Facade Width {m}

AirflowNetwork:MultiZone:Zone,
    APTO03_P5,               !- Zone Name
    Temperature,             !- Ventilation Control Mode
    VN_19,                   !- Ventilation Control Zone Temperature Setpoint Schedule Name
    0.45,                    !- Minimum Venting Open Factor {dimensionless}
    0,                       !- Indoor and Outdoor Temperature Difference Lower Limit For Maximum Venting Open Factor {deltaC}
    5,                       !- Indoor and Outdoor Temperature Difference Upper Limit for Minimum Venting Open Factor {deltaC}
    0,                       !- Indoor and Outdoor Enthalpy Difference Lower Limit For Maximum Venting Open Factor {deltaJ/kg}
    300000,                  !- Indoor and Outdoor Enthalpy Difference Upper Limit for Minimum Venting Open Factor {deltaJ/kg}
    TLB Occupation Schedule, !- Venting Availability Schedule Name
    Standard,                !- Single Sided Wind Pressure Coefficient Algorithm
    17.15;                   !- Facade Width {m}

AirflowNetwork:MultiZone:Zone,
    APTO04_P5,               !- Zone Name
    Temperature,             !- Ventilation Control Mode
    VN_19,                   !- Ventilation Control Zone Temperature Setpoint Schedule Name
    0.45,                    !- Minimum Venting Open Factor {dimensionless}
    0,                       !- Indoor and Outdoor Temperature Difference Lower Limit For Maximum Venting Open Factor {deltaC}
    5,                       !- Indoor and Outdoor Temperature Difference Upper Limit for Minimum Venting Open Factor {deltaC}
    0,                       !- Indoor and Outdoor Enthalpy Difference Lower Limit For Maximum Venting Open Factor {deltaJ/kg}
    300000,                  !- Indoor and Outdoor Enthalpy Difference Upper Limit for Minimum Venting Open Factor {deltaJ/kg}
    TLB Occupation Schedule, !- Venting Availability Schedule Name
    Standard,                !- Single Sided Wind Pressure Coefficient Algorithm
    17.15;                   !- Facade Width {m}


!-   ===========  ALL OBJECTS IN CLASS: AIRFLOWNETWORK:MULTIZONE:SURFACE ===========

AirflowNetwork:MultiZone:Surface,
    P1_W01,                  !- Surface Name
    Windows,                 !- Leakage Component Name
    ,                        !- External Node Name
    0.45,                    !- Window/Door Opening Factor, or Crack Factor {dimensionless}
    ZoneLevel,               !- Ventilation Control Mode
    VN_19,                   !- Ventilation Control Zone Temperature Setpoint Schedule Name
    0.45,                    !- Minimum Venting Open Factor {dimensionless}
    0,                       !- Indoor and Outdoor Temperature Difference Lower Limit For Maximum Venting Open Factor {deltaC}
    5,                       !- Indoor and Outdoor Temperature Difference Upper Limit for Minimum Venting Open Factor {deltaC}
    0,                       !- Indoor and Outdoor Enthalpy Difference Lower Limit For Maximum Venting Open Factor {deltaJ/kg}
    300000,                  !- Indoor and Outdoor Enthalpy Difference Upper Limit for Minimum Venting Open Factor {deltaJ/kg}
    TLB Occupation Schedule, !- Venting Availability Schedule Name
    ,                        !- Occupant Ventilation Control Name
    PolygonHeight,           !- Equivalent Rectangle Method
    1;                       !- Equivalent Rectangle Aspect Ratio {dimensionless}

AirflowNetwork:MultiZone:Surface,
    P1_W02,                  !- Surface Name
    Windows,                 !- Leakage Component Name
    ,                        !- External Node Name
    0.45,                    !- Window/Door Opening Factor, or Crack Factor {dimensionless}
    ZoneLevel,               !- Ventilation Control Mode
    VN_19,                   !- Ventilation Control Zone Temperature Setpoint Schedule Name
    0.45,                    !- Minimum Venting Open Factor {dimensionless}
    0,                       !- Indoor and Outdoor Temperature Difference Lower Limit For Maximum Venting Open Factor {deltaC}
    5,                       !- Indoor and Outdoor Temperature Difference Upper Limit for Minimum Venting Open Factor {deltaC}
    0,                       !- Indoor and Outdoor Enthalpy Difference Lower Limit For Maximum Venting Open Factor {deltaJ/kg}
    300000,                  !- Indoor and Outdoor Enthalpy Difference Upper Limit for Minimum Venting Open Factor {deltaJ/kg}
    TLB Occupation Schedule, !- Venting Availability Schedule Name
    ,                        !- Occupant Ventilation Control Name
    PolygonHeight,           !- Equivalent Rectangle Method
    1;                       !- Equivalent Rectangle Aspect Ratio {dimensionless}

AirflowNetwork:MultiZone:Surface,
    P1_W03 (Door),           !- Surface Name
    Doors,                   !- Leakage Component Name
    ,                        !- External Node Name
    0.45,                    !- Window/Door Opening Factor, or Crack Factor {dimensionless}
    ZoneLevel,               !- Ventilation Control Mode
    VN_19,                   !- Ventilation Control Zone Temperature Setpoint Schedule Name
    0.45,                    !- Minimum Venting Open Factor {dimensionless}
    0,                       !- Indoor and Outdoor Temperature Difference Lower Limit For Maximum Venting Open Factor {deltaC}
    5,                       !- Indoor and Outdoor Temperature Difference Upper Limit for Minimum Venting Open Factor {deltaC}
    0,                       !- Indoor and Outdoor Enthalpy Difference Lower Limit For Maximum Venting Open Factor {deltaJ/kg}
    300000,                  !- Indoor and Outdoor Enthalpy Difference Upper Limit for Minimum Venting Open Factor {deltaJ/kg}
    TLB Occupation Schedule, !- Venting Availability Schedule Name
    ,                        !- Occupant Ventilation Control Name
    PolygonHeight,           !- Equivalent Rectangle Method
    1;                       !- Equivalent Rectangle Aspect Ratio {dimensionless}

AirflowNetwork:MultiZone:Surface,
    P1_W04 (WC),             !- Surface Name
    Windows,                 !- Leakage Component Name
    ,                        !- External Node Name
    0.45,                    !- Window/Door Opening Factor, or Crack Factor {dimensionless}
    ZoneLevel,               !- Ventilation Control Mode
    VN_19,                   !- Ventilation Control Zone Temperature Setpoint Schedule Name
    0.45,                    !- Minimum Venting Open Factor {dimensionless}
    0,                       !- Indoor and Outdoor Temperature Difference Lower Limit For Maximum Venting Open Factor {deltaC}
    5,                       !- Indoor and Outdoor Temperature Difference Upper Limit for Minimum Venting Open Factor {deltaC}
    0,                       !- Indoor and Outdoor Enthalpy Difference Lower Limit For Maximum Venting Open Factor {deltaJ/kg}
    300000,                  !- Indoor and Outdoor Enthalpy Difference Upper Limit for Minimum Venting Open Factor {deltaJ/kg}
    TLB Occupation Schedule, !- Venting Availability Schedule Name
    ,                        !- Occupant Ventilation Control Name
    PolygonHeight,           !- Equivalent Rectangle Method
    1;                       !- Equivalent Rectangle Aspect Ratio {dimensionless}

AirflowNetwork:MultiZone:Surface,
    P1_W05 (Kitchen),        !- Surface Name
    Windows,                 !- Leakage Component Name
    ,                        !- External Node Name
    0.45,                    !- Window/Door Opening Factor, or Crack Factor {dimensionless}
    ZoneLevel,               !- Ventilation Control Mode
    VN_19,                   !- Ventilation Control Zone Temperature Setpoint Schedule Name
    0.45,                    !- Minimum Venting Open Factor {dimensionless}
    0,                       !- Indoor and Outdoor Temperature Difference Lower Limit For Maximum Venting Open Factor {deltaC}
    5,                       !- Indoor and Outdoor Temperature Difference Upper Limit for Minimum Venting Open Factor {deltaC}
    0,                       !- Indoor and Outdoor Enthalpy Difference Lower Limit For Maximum Venting Open Factor {deltaJ/kg}
    300000,                  !- Indoor and Outdoor Enthalpy Difference Upper Limit for Minimum Venting Open Factor {deltaJ/kg}
    TLB Occupation Schedule, !- Venting Availability Schedule Name
    ,                        !- Occupant Ventilation Control Name
    PolygonHeight,           !- Equivalent Rectangle Method
    1;                       !- Equivalent Rectangle Aspect Ratio {dimensionless}

AirflowNetwork:MultiZone:Surface,
    P1_W06,                  !- Surface Name
    Windows,                 !- Leakage Component Name
    ,                        !- External Node Name
    0.45,                    !- Window/Door Opening Factor, or Crack Factor {dimensionless}
    ZoneLevel,               !- Ventilation Control Mode
    VN_19,                   !- Ventilation Control Zone Temperature Setpoint Schedule Name
    0.45,                    !- Minimum Venting Open Factor {dimensionless}
    0,                       !- Indoor and Outdoor Temperature Difference Lower Limit For Maximum Venting Open Factor {deltaC}
    5,                       !- Indoor and Outdoor Temperature Difference Upper Limit for Minimum Venting Open Factor {deltaC}
    0,                       !- Indoor and Outdoor Enthalpy Difference Lower Limit For Maximum Venting Open Factor {deltaJ/kg}
    300000,                  !- Indoor and Outdoor Enthalpy Difference Upper Limit for Minimum Venting Open Factor {deltaJ/kg}
    TLB Occupation Schedule, !- Venting Availability Schedule Name
    ,                        !- Occupant Ventilation Control Name
    PolygonHeight,           !- Equivalent Rectangle Method
    1;                       !- Equivalent Rectangle Aspect Ratio {dimensionless}

AirflowNetwork:MultiZone:Surface,
    P1_W07,                  !- Surface Name
    Windows,                 !- Leakage Component Name
    ,                        !- External Node Name
    0.45,                    !- Window/Door Opening Factor, or Crack Factor {dimensionless}
    ZoneLevel,               !- Ventilation Control Mode
    VN_19,                   !- Ventilation Control Zone Temperature Setpoint Schedule Name
    0.45,                    !- Minimum Venting Open Factor {dimensionless}
    0,                       !- Indoor and Outdoor Temperature Difference Lower Limit For Maximum Venting Open Factor {deltaC}
    5,                       !- Indoor and Outdoor Temperature Difference Upper Limit for Minimum Venting Open Factor {deltaC}
    0,                       !- Indoor and Outdoor Enthalpy Difference Lower Limit For Maximum Venting Open Factor {deltaJ/kg}
    300000,                  !- Indoor and Outdoor Enthalpy Difference Upper Limit for Minimum Venting Open Factor {deltaJ/kg}
    TLB Occupation Schedule, !- Venting Availability Schedule Name
    ,                        !- Occupant Ventilation Control Name
    PolygonHeight,           !- Equivalent Rectangle Method
    1;                       !- Equivalent Rectangle Aspect Ratio {dimensionless}

AirflowNetwork:MultiZone:Surface,
    P1_W08 (Door),           !- Surface Name
    Doors,                   !- Leakage Component Name
    ,                        !- External Node Name
    0.45,                    !- Window/Door Opening Factor, or Crack Factor {dimensionless}
    ZoneLevel,               !- Ventilation Control Mode
    VN_19,                   !- Ventilation Control Zone Temperature Setpoint Schedule Name
    0.45,                    !- Minimum Venting Open Factor {dimensionless}
    0,                       !- Indoor and Outdoor Temperature Difference Lower Limit For Maximum Venting Open Factor {deltaC}
    5,                       !- Indoor and Outdoor Temperature Difference Upper Limit for Minimum Venting Open Factor {deltaC}
    0,                       !- Indoor and Outdoor Enthalpy Difference Lower Limit For Maximum Venting Open Factor {deltaJ/kg}
    300000,                  !- Indoor and Outdoor Enthalpy Difference Upper Limit for Minimum Venting Open Factor {deltaJ/kg}
    TLB Occupation Schedule, !- Venting Availability Schedule Name
    ,                        !- Occupant Ventilation Control Name
    PolygonHeight,           !- Equivalent Rectangle Method
    1;                       !- Equivalent Rectangle Aspect Ratio {dimensionless}

AirflowNetwork:MultiZone:Surface,
    P1_W09 (WC),             !- Surface Name
    Windows,                 !- Leakage Component Name
    ,                        !- External Node Name
    0.45,                    !- Window/Door Opening Factor, or Crack Factor {dimensionless}
    ZoneLevel,               !- Ventilation Control Mode
    VN_19,                   !- Ventilation Control Zone Temperature Setpoint Schedule Name
    0.45,                    !- Minimum Venting Open Factor {dimensionless}
    0,                       !- Indoor and Outdoor Temperature Difference Lower Limit For Maximum Venting Open Factor {deltaC}
    5,                       !- Indoor and Outdoor Temperature Difference Upper Limit for Minimum Venting Open Factor {deltaC}
    0,                       !- Indoor and Outdoor Enthalpy Difference Lower Limit For Maximum Venting Open Factor {deltaJ/kg}
    300000,                  !- Indoor and Outdoor Enthalpy Difference Upper Limit for Minimum Venting Open Factor {deltaJ/kg}
    TLB Occupation Schedule, !- Venting Availability Schedule Name
    ,                        !- Occupant Ventilation Control Name
    PolygonHeight,           !- Equivalent Rectangle Method
    1;                       !- Equivalent Rectangle Aspect Ratio {dimensionless}

AirflowNetwork:MultiZone:Surface,
    P1_W10 (Kitchen),        !- Surface Name
    Windows,                 !- Leakage Component Name
    ,                        !- External Node Name
    0.45,                    !- Window/Door Opening Factor, or Crack Factor {dimensionless}
    ZoneLevel,               !- Ventilation Control Mode
    VN_19,                   !- Ventilation Control Zone Temperature Setpoint Schedule Name
    0.45,                    !- Minimum Venting Open Factor {dimensionless}
    0,                       !- Indoor and Outdoor Temperature Difference Lower Limit For Maximum Venting Open Factor {deltaC}
    5,                       !- Indoor and Outdoor Temperature Difference Upper Limit for Minimum Venting Open Factor {deltaC}
    0,                       !- Indoor and Outdoor Enthalpy Difference Lower Limit For Maximum Venting Open Factor {deltaJ/kg}
    300000,                  !- Indoor and Outdoor Enthalpy Difference Upper Limit for Minimum Venting Open Factor {deltaJ/kg}
    TLB Occupation Schedule, !- Venting Availability Schedule Name
    ,                        !- Occupant Ventilation Control Name
    PolygonHeight,           !- Equivalent Rectangle Method
    1;                       !- Equivalent Rectangle Aspect Ratio {dimensionless}

AirflowNetwork:MultiZone:Surface,
    P1_W11,                  !- Surface Name
    Windows,                 !- Leakage Component Name
    ,                        !- External Node Name
    0.45,                    !- Window/Door Opening Factor, or Crack Factor {dimensionless}
    ZoneLevel,               !- Ventilation Control Mode
    VN_19,                   !- Ventilation Control Zone Temperature Setpoint Schedule Name
    0.45,                    !- Minimum Venting Open Factor {dimensionless}
    0,                       !- Indoor and Outdoor Temperature Difference Lower Limit For Maximum Venting Open Factor {deltaC}
    5,                       !- Indoor and Outdoor Temperature Difference Upper Limit for Minimum Venting Open Factor {deltaC}
    0,                       !- Indoor and Outdoor Enthalpy Difference Lower Limit For Maximum Venting Open Factor {deltaJ/kg}
    300000,                  !- Indoor and Outdoor Enthalpy Difference Upper Limit for Minimum Venting Open Factor {deltaJ/kg}
    TLB Occupation Schedule, !- Venting Availability Schedule Name
    ,                        !- Occupant Ventilation Control Name
    PolygonHeight,           !- Equivalent Rectangle Method
    1;                       !- Equivalent Rectangle Aspect Ratio {dimensionless}

AirflowNetwork:MultiZone:Surface,
    P1_W12,                  !- Surface Name
    Windows,                 !- Leakage Component Name
    ,                        !- External Node Name
    0.45,                    !- Window/Door Opening Factor, or Crack Factor {dimensionless}
    ZoneLevel,               !- Ventilation Control Mode
    VN_19,                   !- Ventilation Control Zone Temperature Setpoint Schedule Name
    0.45,                    !- Minimum Venting Open Factor {dimensionless}
    0,                       !- Indoor and Outdoor Temperature Difference Lower Limit For Maximum Venting Open Factor {deltaC}
    5,                       !- Indoor and Outdoor Temperature Difference Upper Limit for Minimum Venting Open Factor {deltaC}
    0,                       !- Indoor and Outdoor Enthalpy Difference Lower Limit For Maximum Venting Open Factor {deltaJ/kg}
    300000,                  !- Indoor and Outdoor Enthalpy Difference Upper Limit for Minimum Venting Open Factor {deltaJ/kg}
    TLB Occupation Schedule, !- Venting Availability Schedule Name
    ,                        !- Occupant Ventilation Control Name
    PolygonHeight,           !- Equivalent Rectangle Method
    1;                       !- Equivalent Rectangle Aspect Ratio {dimensionless}

AirflowNetwork:MultiZone:Surface,
    P1_W13 (Door),           !- Surface Name
    Doors,                   !- Leakage Component Name
    ,                        !- External Node Name
    0.45,                    !- Window/Door Opening Factor, or Crack Factor {dimensionless}
    ZoneLevel,               !- Ventilation Control Mode
    VN_19,                   !- Ventilation Control Zone Temperature Setpoint Schedule Name
    0.45,                    !- Minimum Venting Open Factor {dimensionless}
    0,                       !- Indoor and Outdoor Temperature Difference Lower Limit For Maximum Venting Open Factor {deltaC}
    5,                       !- Indoor and Outdoor Temperature Difference Upper Limit for Minimum Venting Open Factor {deltaC}
    0,                       !- Indoor and Outdoor Enthalpy Difference Lower Limit For Maximum Venting Open Factor {deltaJ/kg}
    300000,                  !- Indoor and Outdoor Enthalpy Difference Upper Limit for Minimum Venting Open Factor {deltaJ/kg}
    TLB Occupation Schedule, !- Venting Availability Schedule Name
    ,                        !- Occupant Ventilation Control Name
    PolygonHeight,           !- Equivalent Rectangle Method
    1;                       !- Equivalent Rectangle Aspect Ratio {dimensionless}

AirflowNetwork:MultiZone:Surface,
    P1_W14 (WC),             !- Surface Name
    Windows,                 !- Leakage Component Name
    ,                        !- External Node Name
    0.45,                    !- Window/Door Opening Factor, or Crack Factor {dimensionless}
    ZoneLevel,               !- Ventilation Control Mode
    VN_19,                   !- Ventilation Control Zone Temperature Setpoint Schedule Name
    0.45,                    !- Minimum Venting Open Factor {dimensionless}
    0,                       !- Indoor and Outdoor Temperature Difference Lower Limit For Maximum Venting Open Factor {deltaC}
    5,                       !- Indoor and Outdoor Temperature Difference Upper Limit for Minimum Venting Open Factor {deltaC}
    0,                       !- Indoor and Outdoor Enthalpy Difference Lower Limit For Maximum Venting Open Factor {deltaJ/kg}
    300000,                  !- Indoor and Outdoor Enthalpy Difference Upper Limit for Minimum Venting Open Factor {deltaJ/kg}
    TLB Occupation Schedule, !- Venting Availability Schedule Name
    ,                        !- Occupant Ventilation Control Name
    PolygonHeight,           !- Equivalent Rectangle Method
    1;                       !- Equivalent Rectangle Aspect Ratio {dimensionless}

AirflowNetwork:MultiZone:Surface,
    P1_W15 (Kitchen),        !- Surface Name
    Windows,                 !- Leakage Component Name
    ,                        !- External Node Name
    0.45,                    !- Window/Door Opening Factor, or Crack Factor {dimensionless}
    ZoneLevel,               !- Ventilation Control Mode
    VN_19,                   !- Ventilation Control Zone Temperature Setpoint Schedule Name
    0.45,                    !- Minimum Venting Open Factor {dimensionless}
    0,                       !- Indoor and Outdoor Temperature Difference Lower Limit For Maximum Venting Open Factor {deltaC}
    5,                       !- Indoor and Outdoor Temperature Difference Upper Limit for Minimum Venting Open Factor {deltaC}
    0,                       !- Indoor and Outdoor Enthalpy Difference Lower Limit For Maximum Venting Open Factor {deltaJ/kg}
    300000,                  !- Indoor and Outdoor Enthalpy Difference Upper Limit for Minimum Venting Open Factor {deltaJ/kg}
    TLB Occupation Schedule, !- Venting Availability Schedule Name
    ,                        !- Occupant Ventilation Control Name
    PolygonHeight,           !- Equivalent Rectangle Method
    1;                       !- Equivalent Rectangle Aspect Ratio {dimensionless}

AirflowNetwork:MultiZone:Surface,
    P1_W16,                  !- Surface Name
    Windows,                 !- Leakage Component Name
    ,                        !- External Node Name
    0.45,                    !- Window/Door Opening Factor, or Crack Factor {dimensionless}
    ZoneLevel,               !- Ventilation Control Mode
    VN_19,                   !- Ventilation Control Zone Temperature Setpoint Schedule Name
    0.45,                    !- Minimum Venting Open Factor {dimensionless}
    0,                       !- Indoor and Outdoor Temperature Difference Lower Limit For Maximum Venting Open Factor {deltaC}
    5,                       !- Indoor and Outdoor Temperature Difference Upper Limit for Minimum Venting Open Factor {deltaC}
    0,                       !- Indoor and Outdoor Enthalpy Difference Lower Limit For Maximum Venting Open Factor {deltaJ/kg}
    300000,                  !- Indoor and Outdoor Enthalpy Difference Upper Limit for Minimum Venting Open Factor {deltaJ/kg}
    TLB Occupation Schedule, !- Venting Availability Schedule Name
    ,                        !- Occupant Ventilation Control Name
    PolygonHeight,           !- Equivalent Rectangle Method
    1;                       !- Equivalent Rectangle Aspect Ratio {dimensionless}

AirflowNetwork:MultiZone:Surface,
    P1_W17,                  !- Surface Name
    Doors,                   !- Leakage Component Name
    ,                        !- External Node Name
    0.45,                    !- Window/Door Opening Factor, or Crack Factor {dimensionless}
    ZoneLevel,               !- Ventilation Control Mode
    VN_19,                   !- Ventilation Control Zone Temperature Setpoint Schedule Name
    0.45,                    !- Minimum Venting Open Factor {dimensionless}
    0,                       !- Indoor and Outdoor Temperature Difference Lower Limit For Maximum Venting Open Factor {deltaC}
    5,                       !- Indoor and Outdoor Temperature Difference Upper Limit for Minimum Venting Open Factor {deltaC}
    0,                       !- Indoor and Outdoor Enthalpy Difference Lower Limit For Maximum Venting Open Factor {deltaJ/kg}
    300000,                  !- Indoor and Outdoor Enthalpy Difference Upper Limit for Minimum Venting Open Factor {deltaJ/kg}
    TLB Occupation Schedule, !- Venting Availability Schedule Name
    ,                        !- Occupant Ventilation Control Name
    PolygonHeight,           !- Equivalent Rectangle Method
    1;                       !- Equivalent Rectangle Aspect Ratio {dimensionless}

AirflowNetwork:MultiZone:Surface,
    P1_W18 (Door),           !- Surface Name
    Doors,                   !- Leakage Component Name
    ,                        !- External Node Name
    0.45,                    !- Window/Door Opening Factor, or Crack Factor {dimensionless}
    ZoneLevel,               !- Ventilation Control Mode
    VN_19,                   !- Ventilation Control Zone Temperature Setpoint Schedule Name
    0.45,                    !- Minimum Venting Open Factor {dimensionless}
    0,                       !- Indoor and Outdoor Temperature Difference Lower Limit For Maximum Venting Open Factor {deltaC}
    5,                       !- Indoor and Outdoor Temperature Difference Upper Limit for Minimum Venting Open Factor {deltaC}
    0,                       !- Indoor and Outdoor Enthalpy Difference Lower Limit For Maximum Venting Open Factor {deltaJ/kg}
    300000,                  !- Indoor and Outdoor Enthalpy Difference Upper Limit for Minimum Venting Open Factor {deltaJ/kg}
    TLB Occupation Schedule, !- Venting Availability Schedule Name
    ,                        !- Occupant Ventilation Control Name
    PolygonHeight,           !- Equivalent Rectangle Method
    1;                       !- Equivalent Rectangle Aspect Ratio {dimensionless}

AirflowNetwork:MultiZone:Surface,
    P1_W19 (WC),             !- Surface Name
    Windows,                 !- Leakage Component Name
    ,                        !- External Node Name
    0.45,                    !- Window/Door Opening Factor, or Crack Factor {dimensionless}
    ZoneLevel,               !- Ventilation Control Mode
    VN_19,                   !- Ventilation Control Zone Temperature Setpoint Schedule Name
    0.45,                    !- Minimum Venting Open Factor {dimensionless}
    0,                       !- Indoor and Outdoor Temperature Difference Lower Limit For Maximum Venting Open Factor {deltaC}
    5,                       !- Indoor and Outdoor Temperature Difference Upper Limit for Minimum Venting Open Factor {deltaC}
    0,                       !- Indoor and Outdoor Enthalpy Difference Lower Limit For Maximum Venting Open Factor {deltaJ/kg}
    300000,                  !- Indoor and Outdoor Enthalpy Difference Upper Limit for Minimum Venting Open Factor {deltaJ/kg}
    TLB Occupation Schedule, !- Venting Availability Schedule Name
    ,                        !- Occupant Ventilation Control Name
    PolygonHeight,           !- Equivalent Rectangle Method
    1;                       !- Equivalent Rectangle Aspect Ratio {dimensionless}

AirflowNetwork:MultiZone:Surface,
    P1_W20 (Kitchen),        !- Surface Name
    Windows,                 !- Leakage Component Name
    ,                        !- External Node Name
    0.45,                    !- Window/Door Opening Factor, or Crack Factor {dimensionless}
    ZoneLevel,               !- Ventilation Control Mode
    VN_19,                   !- Ventilation Control Zone Temperature Setpoint Schedule Name
    0.45,                    !- Minimum Venting Open Factor {dimensionless}
    0,                       !- Indoor and Outdoor Temperature Difference Lower Limit For Maximum Venting Open Factor {deltaC}
    5,                       !- Indoor and Outdoor Temperature Difference Upper Limit for Minimum Venting Open Factor {deltaC}
    0,                       !- Indoor and Outdoor Enthalpy Difference Lower Limit For Maximum Venting Open Factor {deltaJ/kg}
    300000,                  !- Indoor and Outdoor Enthalpy Difference Upper Limit for Minimum Venting Open Factor {deltaJ/kg}
    TLB Occupation Schedule, !- Venting Availability Schedule Name
    ,                        !- Occupant Ventilation Control Name
    PolygonHeight,           !- Equivalent Rectangle Method
    1;                       !- Equivalent Rectangle Aspect Ratio {dimensionless}

AirflowNetwork:MultiZone:Surface,
    P2_W01,                  !- Surface Name
    Windows,                 !- Leakage Component Name
    ,                        !- External Node Name
    0.45,                    !- Window/Door Opening Factor, or Crack Factor {dimensionless}
    ZoneLevel,               !- Ventilation Control Mode
    VN_19,                   !- Ventilation Control Zone Temperature Setpoint Schedule Name
    0.45,                    !- Minimum Venting Open Factor {dimensionless}
    0,                       !- Indoor and Outdoor Temperature Difference Lower Limit For Maximum Venting Open Factor {deltaC}
    5,                       !- Indoor and Outdoor Temperature Difference Upper Limit for Minimum Venting Open Factor {deltaC}
    0,                       !- Indoor and Outdoor Enthalpy Difference Lower Limit For Maximum Venting Open Factor {deltaJ/kg}
    300000,                  !- Indoor and Outdoor Enthalpy Difference Upper Limit for Minimum Venting Open Factor {deltaJ/kg}
    TLB Occupation Schedule, !- Venting Availability Schedule Name
    ,                        !- Occupant Ventilation Control Name
    PolygonHeight,           !- Equivalent Rectangle Method
    1;                       !- Equivalent Rectangle Aspect Ratio {dimensionless}

AirflowNetwork:MultiZone:Surface,
    P2_W02,                  !- Surface Name
    Windows,                 !- Leakage Component Name
    ,                        !- External Node Name
    0.45,                    !- Window/Door Opening Factor, or Crack Factor {dimensionless}
    ZoneLevel,               !- Ventilation Control Mode
    VN_19,                   !- Ventilation Control Zone Temperature Setpoint Schedule Name
    0.45,                    !- Minimum Venting Open Factor {dimensionless}
    0,                       !- Indoor and Outdoor Temperature Difference Lower Limit For Maximum Venting Open Factor {deltaC}
    5,                       !- Indoor and Outdoor Temperature Difference Upper Limit for Minimum Venting Open Factor {deltaC}
    0,                       !- Indoor and Outdoor Enthalpy Difference Lower Limit For Maximum Venting Open Factor {deltaJ/kg}
    300000,                  !- Indoor and Outdoor Enthalpy Difference Upper Limit for Minimum Venting Open Factor {deltaJ/kg}
    TLB Occupation Schedule, !- Venting Availability Schedule Name
    ,                        !- Occupant Ventilation Control Name
    PolygonHeight,           !- Equivalent Rectangle Method
    1;                       !- Equivalent Rectangle Aspect Ratio {dimensionless}

AirflowNetwork:MultiZone:Surface,
    P2_W03 (Door),           !- Surface Name
    Doors,                   !- Leakage Component Name
    ,                        !- External Node Name
    0.45,                    !- Window/Door Opening Factor, or Crack Factor {dimensionless}
    ZoneLevel,               !- Ventilation Control Mode
    VN_19,                   !- Ventilation Control Zone Temperature Setpoint Schedule Name
    0.45,                    !- Minimum Venting Open Factor {dimensionless}
    0,                       !- Indoor and Outdoor Temperature Difference Lower Limit For Maximum Venting Open Factor {deltaC}
    5,                       !- Indoor and Outdoor Temperature Difference Upper Limit for Minimum Venting Open Factor {deltaC}
    0,                       !- Indoor and Outdoor Enthalpy Difference Lower Limit For Maximum Venting Open Factor {deltaJ/kg}
    300000,                  !- Indoor and Outdoor Enthalpy Difference Upper Limit for Minimum Venting Open Factor {deltaJ/kg}
    TLB Occupation Schedule, !- Venting Availability Schedule Name
    ,                        !- Occupant Ventilation Control Name
    PolygonHeight,           !- Equivalent Rectangle Method
    1;                       !- Equivalent Rectangle Aspect Ratio {dimensionless}

AirflowNetwork:MultiZone:Surface,
    P2_W04 (WC),             !- Surface Name
    Windows,                 !- Leakage Component Name
    ,                        !- External Node Name
    0.45,                    !- Window/Door Opening Factor, or Crack Factor {dimensionless}
    ZoneLevel,               !- Ventilation Control Mode
    VN_19,                   !- Ventilation Control Zone Temperature Setpoint Schedule Name
    0.45,                    !- Minimum Venting Open Factor {dimensionless}
    0,                       !- Indoor and Outdoor Temperature Difference Lower Limit For Maximum Venting Open Factor {deltaC}
    5,                       !- Indoor and Outdoor Temperature Difference Upper Limit for Minimum Venting Open Factor {deltaC}
    0,                       !- Indoor and Outdoor Enthalpy Difference Lower Limit For Maximum Venting Open Factor {deltaJ/kg}
    300000,                  !- Indoor and Outdoor Enthalpy Difference Upper Limit for Minimum Venting Open Factor {deltaJ/kg}
    TLB Occupation Schedule, !- Venting Availability Schedule Name
    ,                        !- Occupant Ventilation Control Name
    PolygonHeight,           !- Equivalent Rectangle Method
    1;                       !- Equivalent Rectangle Aspect Ratio {dimensionless}

AirflowNetwork:MultiZone:Surface,
    P2_W05 (Kitchen),        !- Surface Name
    Windows,                 !- Leakage Component Name
    ,                        !- External Node Name
    0.45,                    !- Window/Door Opening Factor, or Crack Factor {dimensionless}
    ZoneLevel,               !- Ventilation Control Mode
    VN_19,                   !- Ventilation Control Zone Temperature Setpoint Schedule Name
    0.45,                    !- Minimum Venting Open Factor {dimensionless}
    0,                       !- Indoor and Outdoor Temperature Difference Lower Limit For Maximum Venting Open Factor {deltaC}
    5,                       !- Indoor and Outdoor Temperature Difference Upper Limit for Minimum Venting Open Factor {deltaC}
    0,                       !- Indoor and Outdoor Enthalpy Difference Lower Limit For Maximum Venting Open Factor {deltaJ/kg}
    300000,                  !- Indoor and Outdoor Enthalpy Difference Upper Limit for Minimum Venting Open Factor {deltaJ/kg}
    TLB Occupation Schedule, !- Venting Availability Schedule Name
    ,                        !- Occupant Ventilation Control Name
    PolygonHeight,           !- Equivalent Rectangle Method
    1;                       !- Equivalent Rectangle Aspect Ratio {dimensionless}

AirflowNetwork:MultiZone:Surface,
    P2_W06,                  !- Surface Name
    Windows,                 !- Leakage Component Name
    ,                        !- External Node Name
    0.45,                    !- Window/Door Opening Factor, or Crack Factor {dimensionless}
    ZoneLevel,               !- Ventilation Control Mode
    VN_19,                   !- Ventilation Control Zone Temperature Setpoint Schedule Name
    0.45,                    !- Minimum Venting Open Factor {dimensionless}
    0,                       !- Indoor and Outdoor Temperature Difference Lower Limit For Maximum Venting Open Factor {deltaC}
    5,                       !- Indoor and Outdoor Temperature Difference Upper Limit for Minimum Venting Open Factor {deltaC}
    0,                       !- Indoor and Outdoor Enthalpy Difference Lower Limit For Maximum Venting Open Factor {deltaJ/kg}
    300000,                  !- Indoor and Outdoor Enthalpy Difference Upper Limit for Minimum Venting Open Factor {deltaJ/kg}
    TLB Occupation Schedule, !- Venting Availability Schedule Name
    ,                        !- Occupant Ventilation Control Name
    PolygonHeight,           !- Equivalent Rectangle Method
    1;                       !- Equivalent Rectangle Aspect Ratio {dimensionless}

AirflowNetwork:MultiZone:Surface,
    P2_W07,                  !- Surface Name
    Windows,                 !- Leakage Component Name
    ,                        !- External Node Name
    0.45,                    !- Window/Door Opening Factor, or Crack Factor {dimensionless}
    ZoneLevel,               !- Ventilation Control Mode
    VN_19,                   !- Ventilation Control Zone Temperature Setpoint Schedule Name
    0.45,                    !- Minimum Venting Open Factor {dimensionless}
    0,                       !- Indoor and Outdoor Temperature Difference Lower Limit For Maximum Venting Open Factor {deltaC}
    5,                       !- Indoor and Outdoor Temperature Difference Upper Limit for Minimum Venting Open Factor {deltaC}
    0,                       !- Indoor and Outdoor Enthalpy Difference Lower Limit For Maximum Venting Open Factor {deltaJ/kg}
    300000,                  !- Indoor and Outdoor Enthalpy Difference Upper Limit for Minimum Venting Open Factor {deltaJ/kg}
    TLB Occupation Schedule, !- Venting Availability Schedule Name
    ,                        !- Occupant Ventilation Control Name
    PolygonHeight,           !- Equivalent Rectangle Method
    1;                       !- Equivalent Rectangle Aspect Ratio {dimensionless}

AirflowNetwork:MultiZone:Surface,
    P2_W08 (Door),           !- Surface Name
    Doors,                   !- Leakage Component Name
    ,                        !- External Node Name
    0.45,                    !- Window/Door Opening Factor, or Crack Factor {dimensionless}
    ZoneLevel,               !- Ventilation Control Mode
    VN_19,                   !- Ventilation Control Zone Temperature Setpoint Schedule Name
    0.45,                    !- Minimum Venting Open Factor {dimensionless}
    0,                       !- Indoor and Outdoor Temperature Difference Lower Limit For Maximum Venting Open Factor {deltaC}
    5,                       !- Indoor and Outdoor Temperature Difference Upper Limit for Minimum Venting Open Factor {deltaC}
    0,                       !- Indoor and Outdoor Enthalpy Difference Lower Limit For Maximum Venting Open Factor {deltaJ/kg}
    300000,                  !- Indoor and Outdoor Enthalpy Difference Upper Limit for Minimum Venting Open Factor {deltaJ/kg}
    TLB Occupation Schedule, !- Venting Availability Schedule Name
    ,                        !- Occupant Ventilation Control Name
    PolygonHeight,           !- Equivalent Rectangle Method
    1;                       !- Equivalent Rectangle Aspect Ratio {dimensionless}

AirflowNetwork:MultiZone:Surface,
    P2_W09 (WC),             !- Surface Name
    Windows,                 !- Leakage Component Name
    ,                        !- External Node Name
    0.45,                    !- Window/Door Opening Factor, or Crack Factor {dimensionless}
    ZoneLevel,               !- Ventilation Control Mode
    VN_19,                   !- Ventilation Control Zone Temperature Setpoint Schedule Name
    0.45,                    !- Minimum Venting Open Factor {dimensionless}
    0,                       !- Indoor and Outdoor Temperature Difference Lower Limit For Maximum Venting Open Factor {deltaC}
    5,                       !- Indoor and Outdoor Temperature Difference Upper Limit for Minimum Venting Open Factor {deltaC}
    0,                       !- Indoor and Outdoor Enthalpy Difference Lower Limit For Maximum Venting Open Factor {deltaJ/kg}
    300000,                  !- Indoor and Outdoor Enthalpy Difference Upper Limit for Minimum Venting Open Factor {deltaJ/kg}
    TLB Occupation Schedule, !- Venting Availability Schedule Name
    ,                        !- Occupant Ventilation Control Name
    PolygonHeight,           !- Equivalent Rectangle Method
    1;                       !- Equivalent Rectangle Aspect Ratio {dimensionless}

AirflowNetwork:MultiZone:Surface,
    P2_W10 (Kitchen),        !- Surface Name
    Windows,                 !- Leakage Component Name
    ,                        !- External Node Name
    0.45,                    !- Window/Door Opening Factor, or Crack Factor {dimensionless}
    ZoneLevel,               !- Ventilation Control Mode
    VN_19,                   !- Ventilation Control Zone Temperature Setpoint Schedule Name
    0.45,                    !- Minimum Venting Open Factor {dimensionless}
    0,                       !- Indoor and Outdoor Temperature Difference Lower Limit For Maximum Venting Open Factor {deltaC}
    5,                       !- Indoor and Outdoor Temperature Difference Upper Limit for Minimum Venting Open Factor {deltaC}
    0,                       !- Indoor and Outdoor Enthalpy Difference Lower Limit For Maximum Venting Open Factor {deltaJ/kg}
    300000,                  !- Indoor and Outdoor Enthalpy Difference Upper Limit for Minimum Venting Open Factor {deltaJ/kg}
    TLB Occupation Schedule, !- Venting Availability Schedule Name
    ,                        !- Occupant Ventilation Control Name
    PolygonHeight,           !- Equivalent Rectangle Method
    1;                       !- Equivalent Rectangle Aspect Ratio {dimensionless}

AirflowNetwork:MultiZone:Surface,
    P2_W11,                  !- Surface Name
    Windows,                 !- Leakage Component Name
    ,                        !- External Node Name
    0.45,                    !- Window/Door Opening Factor, or Crack Factor {dimensionless}
    ZoneLevel,               !- Ventilation Control Mode
    VN_19,                   !- Ventilation Control Zone Temperature Setpoint Schedule Name
    0.45,                    !- Minimum Venting Open Factor {dimensionless}
    0,                       !- Indoor and Outdoor Temperature Difference Lower Limit For Maximum Venting Open Factor {deltaC}
    5,                       !- Indoor and Outdoor Temperature Difference Upper Limit for Minimum Venting Open Factor {deltaC}
    0,                       !- Indoor and Outdoor Enthalpy Difference Lower Limit For Maximum Venting Open Factor {deltaJ/kg}
    300000,                  !- Indoor and Outdoor Enthalpy Difference Upper Limit for Minimum Venting Open Factor {deltaJ/kg}
    TLB Occupation Schedule, !- Venting Availability Schedule Name
    ,                        !- Occupant Ventilation Control Name
    PolygonHeight,           !- Equivalent Rectangle Method
    1;                       !- Equivalent Rectangle Aspect Ratio {dimensionless}

AirflowNetwork:MultiZone:Surface,
    P2_W12,                  !- Surface Name
    Windows,                 !- Leakage Component Name
    ,                        !- External Node Name
    0.45,                    !- Window/Door Opening Factor, or Crack Factor {dimensionless}
    ZoneLevel,               !- Ventilation Control Mode
    VN_19,                   !- Ventilation Control Zone Temperature Setpoint Schedule Name
    0.45,                    !- Minimum Venting Open Factor {dimensionless}
    0,                       !- Indoor and Outdoor Temperature Difference Lower Limit For Maximum Venting Open Factor {deltaC}
    5,                       !- Indoor and Outdoor Temperature Difference Upper Limit for Minimum Venting Open Factor {deltaC}
    0,                       !- Indoor and Outdoor Enthalpy Difference Lower Limit For Maximum Venting Open Factor {deltaJ/kg}
    300000,                  !- Indoor and Outdoor Enthalpy Difference Upper Limit for Minimum Venting Open Factor {deltaJ/kg}
    TLB Occupation Schedule, !- Venting Availability Schedule Name
    ,                        !- Occupant Ventilation Control Name
    PolygonHeight,           !- Equivalent Rectangle Method
    1;                       !- Equivalent Rectangle Aspect Ratio {dimensionless}

AirflowNetwork:MultiZone:Surface,
    P2_W13 (Door),           !- Surface Name
    Doors,                   !- Leakage Component Name
    ,                        !- External Node Name
    0.45,                    !- Window/Door Opening Factor, or Crack Factor {dimensionless}
    ZoneLevel,               !- Ventilation Control Mode
    VN_19,                   !- Ventilation Control Zone Temperature Setpoint Schedule Name
    0.45,                    !- Minimum Venting Open Factor {dimensionless}
    0,                       !- Indoor and Outdoor Temperature Difference Lower Limit For Maximum Venting Open Factor {deltaC}
    5,                       !- Indoor and Outdoor Temperature Difference Upper Limit for Minimum Venting Open Factor {deltaC}
    0,                       !- Indoor and Outdoor Enthalpy Difference Lower Limit For Maximum Venting Open Factor {deltaJ/kg}
    300000,                  !- Indoor and Outdoor Enthalpy Difference Upper Limit for Minimum Venting Open Factor {deltaJ/kg}
    TLB Occupation Schedule, !- Venting Availability Schedule Name
    ,                        !- Occupant Ventilation Control Name
    PolygonHeight,           !- Equivalent Rectangle Method
    1;                       !- Equivalent Rectangle Aspect Ratio {dimensionless}

AirflowNetwork:MultiZone:Surface,
    P2_W14 (WC),             !- Surface Name
    Windows,                 !- Leakage Component Name
    ,                        !- External Node Name
    0.45,                    !- Window/Door Opening Factor, or Crack Factor {dimensionless}
    ZoneLevel,               !- Ventilation Control Mode
    VN_19,                   !- Ventilation Control Zone Temperature Setpoint Schedule Name
    0.45,                    !- Minimum Venting Open Factor {dimensionless}
    0,                       !- Indoor and Outdoor Temperature Difference Lower Limit For Maximum Venting Open Factor {deltaC}
    5,                       !- Indoor and Outdoor Temperature Difference Upper Limit for Minimum Venting Open Factor {deltaC}
    0,                       !- Indoor and Outdoor Enthalpy Difference Lower Limit For Maximum Venting Open Factor {deltaJ/kg}
    300000,                  !- Indoor and Outdoor Enthalpy Difference Upper Limit for Minimum Venting Open Factor {deltaJ/kg}
    TLB Occupation Schedule, !- Venting Availability Schedule Name
    ,                        !- Occupant Ventilation Control Name
    PolygonHeight,           !- Equivalent Rectangle Method
    1;                       !- Equivalent Rectangle Aspect Ratio {dimensionless}

AirflowNetwork:MultiZone:Surface,
    P2_W15 (Kitchen),        !- Surface Name
    Windows,                 !- Leakage Component Name
    ,                        !- External Node Name
    0.45,                    !- Window/Door Opening Factor, or Crack Factor {dimensionless}
    ZoneLevel,               !- Ventilation Control Mode
    VN_19,                   !- Ventilation Control Zone Temperature Setpoint Schedule Name
    0.45,                    !- Minimum Venting Open Factor {dimensionless}
    0,                       !- Indoor and Outdoor Temperature Difference Lower Limit For Maximum Venting Open Factor {deltaC}
    5,                       !- Indoor and Outdoor Temperature Difference Upper Limit for Minimum Venting Open Factor {deltaC}
    0,                       !- Indoor and Outdoor Enthalpy Difference Lower Limit For Maximum Venting Open Factor {deltaJ/kg}
    300000,                  !- Indoor and Outdoor Enthalpy Difference Upper Limit for Minimum Venting Open Factor {deltaJ/kg}
    TLB Occupation Schedule, !- Venting Availability Schedule Name
    ,                        !- Occupant Ventilation Control Name
    PolygonHeight,           !- Equivalent Rectangle Method
    1;                       !- Equivalent Rectangle Aspect Ratio {dimensionless}

AirflowNetwork:MultiZone:Surface,
    P2_W16,                  !- Surface Name
    Windows,                 !- Leakage Component Name
    ,                        !- External Node Name
    0.45,                    !- Window/Door Opening Factor, or Crack Factor {dimensionless}
    ZoneLevel,               !- Ventilation Control Mode
    VN_19,                   !- Ventilation Control Zone Temperature Setpoint Schedule Name
    0.45,                    !- Minimum Venting Open Factor {dimensionless}
    0,                       !- Indoor and Outdoor Temperature Difference Lower Limit For Maximum Venting Open Factor {deltaC}
    5,                       !- Indoor and Outdoor Temperature Difference Upper Limit for Minimum Venting Open Factor {deltaC}
    0,                       !- Indoor and Outdoor Enthalpy Difference Lower Limit For Maximum Venting Open Factor {deltaJ/kg}
    300000,                  !- Indoor and Outdoor Enthalpy Difference Upper Limit for Minimum Venting Open Factor {deltaJ/kg}
    TLB Occupation Schedule, !- Venting Availability Schedule Name
    ,                        !- Occupant Ventilation Control Name
    PolygonHeight,           !- Equivalent Rectangle Method
    1;                       !- Equivalent Rectangle Aspect Ratio {dimensionless}

AirflowNetwork:MultiZone:Surface,
    P2_W17,                  !- Surface Name
    Windows,                 !- Leakage Component Name
    ,                        !- External Node Name
    0.45,                    !- Window/Door Opening Factor, or Crack Factor {dimensionless}
    ZoneLevel,               !- Ventilation Control Mode
    VN_19,                   !- Ventilation Control Zone Temperature Setpoint Schedule Name
    0.45,                    !- Minimum Venting Open Factor {dimensionless}
    0,                       !- Indoor and Outdoor Temperature Difference Lower Limit For Maximum Venting Open Factor {deltaC}
    5,                       !- Indoor and Outdoor Temperature Difference Upper Limit for Minimum Venting Open Factor {deltaC}
    0,                       !- Indoor and Outdoor Enthalpy Difference Lower Limit For Maximum Venting Open Factor {deltaJ/kg}
    300000,                  !- Indoor and Outdoor Enthalpy Difference Upper Limit for Minimum Venting Open Factor {deltaJ/kg}
    TLB Occupation Schedule, !- Venting Availability Schedule Name
    ,                        !- Occupant Ventilation Control Name
    PolygonHeight,           !- Equivalent Rectangle Method
    1;                       !- Equivalent Rectangle Aspect Ratio {dimensionless}

AirflowNetwork:MultiZone:Surface,
    P2_W18 (Door),           !- Surface Name
    Doors,                   !- Leakage Component Name
    ,                        !- External Node Name
    0.45,                    !- Window/Door Opening Factor, or Crack Factor {dimensionless}
    ZoneLevel,               !- Ventilation Control Mode
    VN_19,                   !- Ventilation Control Zone Temperature Setpoint Schedule Name
    0.45,                    !- Minimum Venting Open Factor {dimensionless}
    0,                       !- Indoor and Outdoor Temperature Difference Lower Limit For Maximum Venting Open Factor {deltaC}
    5,                       !- Indoor and Outdoor Temperature Difference Upper Limit for Minimum Venting Open Factor {deltaC}
    0,                       !- Indoor and Outdoor Enthalpy Difference Lower Limit For Maximum Venting Open Factor {deltaJ/kg}
    300000,                  !- Indoor and Outdoor Enthalpy Difference Upper Limit for Minimum Venting Open Factor {deltaJ/kg}
    TLB Occupation Schedule, !- Venting Availability Schedule Name
    ,                        !- Occupant Ventilation Control Name
    PolygonHeight,           !- Equivalent Rectangle Method
    1;                       !- Equivalent Rectangle Aspect Ratio {dimensionless}

AirflowNetwork:MultiZone:Surface,
    P2_W19 (WC),             !- Surface Name
    Windows,                 !- Leakage Component Name
    ,                        !- External Node Name
    0.45,                    !- Window/Door Opening Factor, or Crack Factor {dimensionless}
    ZoneLevel,               !- Ventilation Control Mode
    VN_19,                   !- Ventilation Control Zone Temperature Setpoint Schedule Name
    0.45,                    !- Minimum Venting Open Factor {dimensionless}
    0,                       !- Indoor and Outdoor Temperature Difference Lower Limit For Maximum Venting Open Factor {deltaC}
    5,                       !- Indoor and Outdoor Temperature Difference Upper Limit for Minimum Venting Open Factor {deltaC}
    0,                       !- Indoor and Outdoor Enthalpy Difference Lower Limit For Maximum Venting Open Factor {deltaJ/kg}
    300000,                  !- Indoor and Outdoor Enthalpy Difference Upper Limit for Minimum Venting Open Factor {deltaJ/kg}
    TLB Occupation Schedule, !- Venting Availability Schedule Name
    ,                        !- Occupant Ventilation Control Name
    PolygonHeight,           !- Equivalent Rectangle Method
    1;                       !- Equivalent Rectangle Aspect Ratio {dimensionless}

AirflowNetwork:MultiZone:Surface,
    P2_W20 (Kitchen),        !- Surface Name
    Windows,                 !- Leakage Component Name
    ,                        !- External Node Name
    0.45,                    !- Window/Door Opening Factor, or Crack Factor {dimensionless}
    ZoneLevel,               !- Ventilation Control Mode
    VN_19,                   !- Ventilation Control Zone Temperature Setpoint Schedule Name
    0.45,                    !- Minimum Venting Open Factor {dimensionless}
    0,                       !- Indoor and Outdoor Temperature Difference Lower Limit For Maximum Venting Open Factor {deltaC}
    5,                       !- Indoor and Outdoor Temperature Difference Upper Limit for Minimum Venting Open Factor {deltaC}
    0,                       !- Indoor and Outdoor Enthalpy Difference Lower Limit For Maximum Venting Open Factor {deltaJ/kg}
    300000,                  !- Indoor and Outdoor Enthalpy Difference Upper Limit for Minimum Venting Open Factor {deltaJ/kg}
    TLB Occupation Schedule, !- Venting Availability Schedule Name
    ,                        !- Occupant Ventilation Control Name
    PolygonHeight,           !- Equivalent Rectangle Method
    1;                       !- Equivalent Rectangle Aspect Ratio {dimensionless}

AirflowNetwork:MultiZone:Surface,
    P3_W01,                  !- Surface Name
    Windows,                 !- Leakage Component Name
    ,                        !- External Node Name
    0.45,                    !- Window/Door Opening Factor, or Crack Factor {dimensionless}
    ZoneLevel,               !- Ventilation Control Mode
    VN_19,                   !- Ventilation Control Zone Temperature Setpoint Schedule Name
    0.45,                    !- Minimum Venting Open Factor {dimensionless}
    0,                       !- Indoor and Outdoor Temperature Difference Lower Limit For Maximum Venting Open Factor {deltaC}
    5,                       !- Indoor and Outdoor Temperature Difference Upper Limit for Minimum Venting Open Factor {deltaC}
    0,                       !- Indoor and Outdoor Enthalpy Difference Lower Limit For Maximum Venting Open Factor {deltaJ/kg}
    300000,                  !- Indoor and Outdoor Enthalpy Difference Upper Limit for Minimum Venting Open Factor {deltaJ/kg}
    TLB Occupation Schedule, !- Venting Availability Schedule Name
    ,                        !- Occupant Ventilation Control Name
    PolygonHeight,           !- Equivalent Rectangle Method
    1;                       !- Equivalent Rectangle Aspect Ratio {dimensionless}

AirflowNetwork:MultiZone:Surface,
    P3_W02,                  !- Surface Name
    Windows,                 !- Leakage Component Name
    ,                        !- External Node Name
    0.45,                    !- Window/Door Opening Factor, or Crack Factor {dimensionless}
    ZoneLevel,               !- Ventilation Control Mode
    VN_19,                   !- Ventilation Control Zone Temperature Setpoint Schedule Name
    0.45,                    !- Minimum Venting Open Factor {dimensionless}
    0,                       !- Indoor and Outdoor Temperature Difference Lower Limit For Maximum Venting Open Factor {deltaC}
    5,                       !- Indoor and Outdoor Temperature Difference Upper Limit for Minimum Venting Open Factor {deltaC}
    0,                       !- Indoor and Outdoor Enthalpy Difference Lower Limit For Maximum Venting Open Factor {deltaJ/kg}
    300000,                  !- Indoor and Outdoor Enthalpy Difference Upper Limit for Minimum Venting Open Factor {deltaJ/kg}
    TLB Occupation Schedule, !- Venting Availability Schedule Name
    ,                        !- Occupant Ventilation Control Name
    PolygonHeight,           !- Equivalent Rectangle Method
    1;                       !- Equivalent Rectangle Aspect Ratio {dimensionless}

AirflowNetwork:MultiZone:Surface,
    P3_W03 (Door),           !- Surface Name
    Doors,                   !- Leakage Component Name
    ,                        !- External Node Name
    0.45,                    !- Window/Door Opening Factor, or Crack Factor {dimensionless}
    ZoneLevel,               !- Ventilation Control Mode
    VN_19,                   !- Ventilation Control Zone Temperature Setpoint Schedule Name
    0.45,                    !- Minimum Venting Open Factor {dimensionless}
    0,                       !- Indoor and Outdoor Temperature Difference Lower Limit For Maximum Venting Open Factor {deltaC}
    5,                       !- Indoor and Outdoor Temperature Difference Upper Limit for Minimum Venting Open Factor {deltaC}
    0,                       !- Indoor and Outdoor Enthalpy Difference Lower Limit For Maximum Venting Open Factor {deltaJ/kg}
    300000,                  !- Indoor and Outdoor Enthalpy Difference Upper Limit for Minimum Venting Open Factor {deltaJ/kg}
    TLB Occupation Schedule, !- Venting Availability Schedule Name
    ,                        !- Occupant Ventilation Control Name
    PolygonHeight,           !- Equivalent Rectangle Method
    1;                       !- Equivalent Rectangle Aspect Ratio {dimensionless}

AirflowNetwork:MultiZone:Surface,
    P3_W04 (WC),             !- Surface Name
    Windows,                 !- Leakage Component Name
    ,                        !- External Node Name
    0.45,                    !- Window/Door Opening Factor, or Crack Factor {dimensionless}
    ZoneLevel,               !- Ventilation Control Mode
    VN_19,                   !- Ventilation Control Zone Temperature Setpoint Schedule Name
    0.45,                    !- Minimum Venting Open Factor {dimensionless}
    0,                       !- Indoor and Outdoor Temperature Difference Lower Limit For Maximum Venting Open Factor {deltaC}
    5,                       !- Indoor and Outdoor Temperature Difference Upper Limit for Minimum Venting Open Factor {deltaC}
    0,                       !- Indoor and Outdoor Enthalpy Difference Lower Limit For Maximum Venting Open Factor {deltaJ/kg}
    300000,                  !- Indoor and Outdoor Enthalpy Difference Upper Limit for Minimum Venting Open Factor {deltaJ/kg}
    TLB Occupation Schedule, !- Venting Availability Schedule Name
    ,                        !- Occupant Ventilation Control Name
    PolygonHeight,           !- Equivalent Rectangle Method
    1;                       !- Equivalent Rectangle Aspect Ratio {dimensionless}

AirflowNetwork:MultiZone:Surface,
    P3_W05 (Kitchen),        !- Surface Name
    Windows,                 !- Leakage Component Name
    ,                        !- External Node Name
    0.45,                    !- Window/Door Opening Factor, or Crack Factor {dimensionless}
    ZoneLevel,               !- Ventilation Control Mode
    VN_19,                   !- Ventilation Control Zone Temperature Setpoint Schedule Name
    0.45,                    !- Minimum Venting Open Factor {dimensionless}
    0,                       !- Indoor and Outdoor Temperature Difference Lower Limit For Maximum Venting Open Factor {deltaC}
    5,                       !- Indoor and Outdoor Temperature Difference Upper Limit for Minimum Venting Open Factor {deltaC}
    0,                       !- Indoor and Outdoor Enthalpy Difference Lower Limit For Maximum Venting Open Factor {deltaJ/kg}
    300000,                  !- Indoor and Outdoor Enthalpy Difference Upper Limit for Minimum Venting Open Factor {deltaJ/kg}
    TLB Occupation Schedule, !- Venting Availability Schedule Name
    ,                        !- Occupant Ventilation Control Name
    PolygonHeight,           !- Equivalent Rectangle Method
    1;                       !- Equivalent Rectangle Aspect Ratio {dimensionless}

AirflowNetwork:MultiZone:Surface,
    P3_W06,                  !- Surface Name
    Windows,                 !- Leakage Component Name
    ,                        !- External Node Name
    0.45,                    !- Window/Door Opening Factor, or Crack Factor {dimensionless}
    ZoneLevel,               !- Ventilation Control Mode
    VN_19,                   !- Ventilation Control Zone Temperature Setpoint Schedule Name
    0.45,                    !- Minimum Venting Open Factor {dimensionless}
    0,                       !- Indoor and Outdoor Temperature Difference Lower Limit For Maximum Venting Open Factor {deltaC}
    5,                       !- Indoor and Outdoor Temperature Difference Upper Limit for Minimum Venting Open Factor {deltaC}
    0,                       !- Indoor and Outdoor Enthalpy Difference Lower Limit For Maximum Venting Open Factor {deltaJ/kg}
    300000,                  !- Indoor and Outdoor Enthalpy Difference Upper Limit for Minimum Venting Open Factor {deltaJ/kg}
    TLB Occupation Schedule, !- Venting Availability Schedule Name
    ,                        !- Occupant Ventilation Control Name
    PolygonHeight,           !- Equivalent Rectangle Method
    1;                       !- Equivalent Rectangle Aspect Ratio {dimensionless}

AirflowNetwork:MultiZone:Surface,
    P3_W07,                  !- Surface Name
    Windows,                 !- Leakage Component Name
    ,                        !- External Node Name
    0.45,                    !- Window/Door Opening Factor, or Crack Factor {dimensionless}
    ZoneLevel,               !- Ventilation Control Mode
    VN_19,                   !- Ventilation Control Zone Temperature Setpoint Schedule Name
    0.45,                    !- Minimum Venting Open Factor {dimensionless}
    0,                       !- Indoor and Outdoor Temperature Difference Lower Limit For Maximum Venting Open Factor {deltaC}
    5,                       !- Indoor and Outdoor Temperature Difference Upper Limit for Minimum Venting Open Factor {deltaC}
    0,                       !- Indoor and Outdoor Enthalpy Difference Lower Limit For Maximum Venting Open Factor {deltaJ/kg}
    300000,                  !- Indoor and Outdoor Enthalpy Difference Upper Limit for Minimum Venting Open Factor {deltaJ/kg}
    TLB Occupation Schedule, !- Venting Availability Schedule Name
    ,                        !- Occupant Ventilation Control Name
    PolygonHeight,           !- Equivalent Rectangle Method
    1;                       !- Equivalent Rectangle Aspect Ratio {dimensionless}

AirflowNetwork:MultiZone:Surface,
    P3_W08 (Door),           !- Surface Name
    Doors,                   !- Leakage Component Name
    ,                        !- External Node Name
    0.45,                    !- Window/Door Opening Factor, or Crack Factor {dimensionless}
    ZoneLevel,               !- Ventilation Control Mode
    VN_19,                   !- Ventilation Control Zone Temperature Setpoint Schedule Name
    0.45,                    !- Minimum Venting Open Factor {dimensionless}
    0,                       !- Indoor and Outdoor Temperature Difference Lower Limit For Maximum Venting Open Factor {deltaC}
    5,                       !- Indoor and Outdoor Temperature Difference Upper Limit for Minimum Venting Open Factor {deltaC}
    0,                       !- Indoor and Outdoor Enthalpy Difference Lower Limit For Maximum Venting Open Factor {deltaJ/kg}
    300000,                  !- Indoor and Outdoor Enthalpy Difference Upper Limit for Minimum Venting Open Factor {deltaJ/kg}
    TLB Occupation Schedule, !- Venting Availability Schedule Name
    ,                        !- Occupant Ventilation Control Name
    PolygonHeight,           !- Equivalent Rectangle Method
    1;                       !- Equivalent Rectangle Aspect Ratio {dimensionless}

AirflowNetwork:MultiZone:Surface,
    P3_W09 (WC),             !- Surface Name
    Windows,                 !- Leakage Component Name
    ,                        !- External Node Name
    0.45,                    !- Window/Door Opening Factor, or Crack Factor {dimensionless}
    ZoneLevel,               !- Ventilation Control Mode
    VN_19,                   !- Ventilation Control Zone Temperature Setpoint Schedule Name
    0.45,                    !- Minimum Venting Open Factor {dimensionless}
    0,                       !- Indoor and Outdoor Temperature Difference Lower Limit For Maximum Venting Open Factor {deltaC}
    5,                       !- Indoor and Outdoor Temperature Difference Upper Limit for Minimum Venting Open Factor {deltaC}
    0,                       !- Indoor and Outdoor Enthalpy Difference Lower Limit For Maximum Venting Open Factor {deltaJ/kg}
    300000,                  !- Indoor and Outdoor Enthalpy Difference Upper Limit for Minimum Venting Open Factor {deltaJ/kg}
    TLB Occupation Schedule, !- Venting Availability Schedule Name
    ,                        !- Occupant Ventilation Control Name
    PolygonHeight,           !- Equivalent Rectangle Method
    1;                       !- Equivalent Rectangle Aspect Ratio {dimensionless}

AirflowNetwork:MultiZone:Surface,
    P3_W10 (Kitchen),        !- Surface Name
    Windows,                 !- Leakage Component Name
    ,                        !- External Node Name
    0.45,                    !- Window/Door Opening Factor, or Crack Factor {dimensionless}
    ZoneLevel,               !- Ventilation Control Mode
    VN_19,                   !- Ventilation Control Zone Temperature Setpoint Schedule Name
    0.45,                    !- Minimum Venting Open Factor {dimensionless}
    0,                       !- Indoor and Outdoor Temperature Difference Lower Limit For Maximum Venting Open Factor {deltaC}
    5,                       !- Indoor and Outdoor Temperature Difference Upper Limit for Minimum Venting Open Factor {deltaC}
    0,                       !- Indoor and Outdoor Enthalpy Difference Lower Limit For Maximum Venting Open Factor {deltaJ/kg}
    300000,                  !- Indoor and Outdoor Enthalpy Difference Upper Limit for Minimum Venting Open Factor {deltaJ/kg}
    TLB Occupation Schedule, !- Venting Availability Schedule Name
    ,                        !- Occupant Ventilation Control Name
    PolygonHeight,           !- Equivalent Rectangle Method
    1;                       !- Equivalent Rectangle Aspect Ratio {dimensionless}

AirflowNetwork:MultiZone:Surface,
    P3_W11,                  !- Surface Name
    Windows,                 !- Leakage Component Name
    ,                        !- External Node Name
    0.45,                    !- Window/Door Opening Factor, or Crack Factor {dimensionless}
    ZoneLevel,               !- Ventilation Control Mode
    VN_19,                   !- Ventilation Control Zone Temperature Setpoint Schedule Name
    0.45,                    !- Minimum Venting Open Factor {dimensionless}
    0,                       !- Indoor and Outdoor Temperature Difference Lower Limit For Maximum Venting Open Factor {deltaC}
    5,                       !- Indoor and Outdoor Temperature Difference Upper Limit for Minimum Venting Open Factor {deltaC}
    0,                       !- Indoor and Outdoor Enthalpy Difference Lower Limit For Maximum Venting Open Factor {deltaJ/kg}
    300000,                  !- Indoor and Outdoor Enthalpy Difference Upper Limit for Minimum Venting Open Factor {deltaJ/kg}
    TLB Occupation Schedule, !- Venting Availability Schedule Name
    ,                        !- Occupant Ventilation Control Name
    PolygonHeight,           !- Equivalent Rectangle Method
    1;                       !- Equivalent Rectangle Aspect Ratio {dimensionless}

AirflowNetwork:MultiZone:Surface,
    P3_W12,                  !- Surface Name
    Windows,                 !- Leakage Component Name
    ,                        !- External Node Name
    0.45,                    !- Window/Door Opening Factor, or Crack Factor {dimensionless}
    ZoneLevel,               !- Ventilation Control Mode
    VN_19,                   !- Ventilation Control Zone Temperature Setpoint Schedule Name
    0.45,                    !- Minimum Venting Open Factor {dimensionless}
    0,                       !- Indoor and Outdoor Temperature Difference Lower Limit For Maximum Venting Open Factor {deltaC}
    5,                       !- Indoor and Outdoor Temperature Difference Upper Limit for Minimum Venting Open Factor {deltaC}
    0,                       !- Indoor and Outdoor Enthalpy Difference Lower Limit For Maximum Venting Open Factor {deltaJ/kg}
    300000,                  !- Indoor and Outdoor Enthalpy Difference Upper Limit for Minimum Venting Open Factor {deltaJ/kg}
    TLB Occupation Schedule, !- Venting Availability Schedule Name
    ,                        !- Occupant Ventilation Control Name
    PolygonHeight,           !- Equivalent Rectangle Method
    1;                       !- Equivalent Rectangle Aspect Ratio {dimensionless}

AirflowNetwork:MultiZone:Surface,
    P3_W13 (Door),           !- Surface Name
    Doors,                   !- Leakage Component Name
    ,                        !- External Node Name
    0.45,                    !- Window/Door Opening Factor, or Crack Factor {dimensionless}
    ZoneLevel,               !- Ventilation Control Mode
    VN_19,                   !- Ventilation Control Zone Temperature Setpoint Schedule Name
    0.45,                    !- Minimum Venting Open Factor {dimensionless}
    0,                       !- Indoor and Outdoor Temperature Difference Lower Limit For Maximum Venting Open Factor {deltaC}
    5,                       !- Indoor and Outdoor Temperature Difference Upper Limit for Minimum Venting Open Factor {deltaC}
    0,                       !- Indoor and Outdoor Enthalpy Difference Lower Limit For Maximum Venting Open Factor {deltaJ/kg}
    300000,                  !- Indoor and Outdoor Enthalpy Difference Upper Limit for Minimum Venting Open Factor {deltaJ/kg}
    TLB Occupation Schedule, !- Venting Availability Schedule Name
    ,                        !- Occupant Ventilation Control Name
    PolygonHeight,           !- Equivalent Rectangle Method
    1;                       !- Equivalent Rectangle Aspect Ratio {dimensionless}

AirflowNetwork:MultiZone:Surface,
    P3_W14 (WC),             !- Surface Name
    Windows,                 !- Leakage Component Name
    ,                        !- External Node Name
    0.45,                    !- Window/Door Opening Factor, or Crack Factor {dimensionless}
    ZoneLevel,               !- Ventilation Control Mode
    VN_19,                   !- Ventilation Control Zone Temperature Setpoint Schedule Name
    0.45,                    !- Minimum Venting Open Factor {dimensionless}
    0,                       !- Indoor and Outdoor Temperature Difference Lower Limit For Maximum Venting Open Factor {deltaC}
    5,                       !- Indoor and Outdoor Temperature Difference Upper Limit for Minimum Venting Open Factor {deltaC}
    0,                       !- Indoor and Outdoor Enthalpy Difference Lower Limit For Maximum Venting Open Factor {deltaJ/kg}
    300000,                  !- Indoor and Outdoor Enthalpy Difference Upper Limit for Minimum Venting Open Factor {deltaJ/kg}
    TLB Occupation Schedule, !- Venting Availability Schedule Name
    ,                        !- Occupant Ventilation Control Name
    PolygonHeight,           !- Equivalent Rectangle Method
    1;                       !- Equivalent Rectangle Aspect Ratio {dimensionless}

AirflowNetwork:MultiZone:Surface,
    P3_W15 (Kitchen),        !- Surface Name
    Windows,                 !- Leakage Component Name
    ,                        !- External Node Name
    0.45,                    !- Window/Door Opening Factor, or Crack Factor {dimensionless}
    ZoneLevel,               !- Ventilation Control Mode
    VN_19,                   !- Ventilation Control Zone Temperature Setpoint Schedule Name
    0.45,                    !- Minimum Venting Open Factor {dimensionless}
    0,                       !- Indoor and Outdoor Temperature Difference Lower Limit For Maximum Venting Open Factor {deltaC}
    5,                       !- Indoor and Outdoor Temperature Difference Upper Limit for Minimum Venting Open Factor {deltaC}
    0,                       !- Indoor and Outdoor Enthalpy Difference Lower Limit For Maximum Venting Open Factor {deltaJ/kg}
    300000,                  !- Indoor and Outdoor Enthalpy Difference Upper Limit for Minimum Venting Open Factor {deltaJ/kg}
    TLB Occupation Schedule, !- Venting Availability Schedule Name
    ,                        !- Occupant Ventilation Control Name
    PolygonHeight,           !- Equivalent Rectangle Method
    1;                       !- Equivalent Rectangle Aspect Ratio {dimensionless}

AirflowNetwork:MultiZone:Surface,
    P3_W16,                  !- Surface Name
    Windows,                 !- Leakage Component Name
    ,                        !- External Node Name
    0.45,                    !- Window/Door Opening Factor, or Crack Factor {dimensionless}
    ZoneLevel,               !- Ventilation Control Mode
    VN_19,                   !- Ventilation Control Zone Temperature Setpoint Schedule Name
    0.45,                    !- Minimum Venting Open Factor {dimensionless}
    0,                       !- Indoor and Outdoor Temperature Difference Lower Limit For Maximum Venting Open Factor {deltaC}
    5,                       !- Indoor and Outdoor Temperature Difference Upper Limit for Minimum Venting Open Factor {deltaC}
    0,                       !- Indoor and Outdoor Enthalpy Difference Lower Limit For Maximum Venting Open Factor {deltaJ/kg}
    300000,                  !- Indoor and Outdoor Enthalpy Difference Upper Limit for Minimum Venting Open Factor {deltaJ/kg}
    TLB Occupation Schedule, !- Venting Availability Schedule Name
    ,                        !- Occupant Ventilation Control Name
    PolygonHeight,           !- Equivalent Rectangle Method
    1;                       !- Equivalent Rectangle Aspect Ratio {dimensionless}

AirflowNetwork:MultiZone:Surface,
    P3_W17,                  !- Surface Name
    Windows,                 !- Leakage Component Name
    ,                        !- External Node Name
    0.45,                    !- Window/Door Opening Factor, or Crack Factor {dimensionless}
    ZoneLevel,               !- Ventilation Control Mode
    VN_19,                   !- Ventilation Control Zone Temperature Setpoint Schedule Name
    0.45,                    !- Minimum Venting Open Factor {dimensionless}
    0,                       !- Indoor and Outdoor Temperature Difference Lower Limit For Maximum Venting Open Factor {deltaC}
    5,                       !- Indoor and Outdoor Temperature Difference Upper Limit for Minimum Venting Open Factor {deltaC}
    0,                       !- Indoor and Outdoor Enthalpy Difference Lower Limit For Maximum Venting Open Factor {deltaJ/kg}
    300000,                  !- Indoor and Outdoor Enthalpy Difference Upper Limit for Minimum Venting Open Factor {deltaJ/kg}
    TLB Occupation Schedule, !- Venting Availability Schedule Name
    ,                        !- Occupant Ventilation Control Name
    PolygonHeight,           !- Equivalent Rectangle Method
    1;                       !- Equivalent Rectangle Aspect Ratio {dimensionless}

AirflowNetwork:MultiZone:Surface,
    P3_W18 (Door),           !- Surface Name
    Doors,                   !- Leakage Component Name
    ,                        !- External Node Name
    0.45,                    !- Window/Door Opening Factor, or Crack Factor {dimensionless}
    ZoneLevel,               !- Ventilation Control Mode
    VN_19,                   !- Ventilation Control Zone Temperature Setpoint Schedule Name
    0.45,                    !- Minimum Venting Open Factor {dimensionless}
    0,                       !- Indoor and Outdoor Temperature Difference Lower Limit For Maximum Venting Open Factor {deltaC}
    5,                       !- Indoor and Outdoor Temperature Difference Upper Limit for Minimum Venting Open Factor {deltaC}
    0,                       !- Indoor and Outdoor Enthalpy Difference Lower Limit For Maximum Venting Open Factor {deltaJ/kg}
    300000,                  !- Indoor and Outdoor Enthalpy Difference Upper Limit for Minimum Venting Open Factor {deltaJ/kg}
    TLB Occupation Schedule, !- Venting Availability Schedule Name
    ,                        !- Occupant Ventilation Control Name
    PolygonHeight,           !- Equivalent Rectangle Method
    1;                       !- Equivalent Rectangle Aspect Ratio {dimensionless}

AirflowNetwork:MultiZone:Surface,
    P3_W19 (WC),             !- Surface Name
    Windows,                 !- Leakage Component Name
    ,                        !- External Node Name
    0.45,                    !- Window/Door Opening Factor, or Crack Factor {dimensionless}
    ZoneLevel,               !- Ventilation Control Mode
    VN_19,                   !- Ventilation Control Zone Temperature Setpoint Schedule Name
    0.45,                    !- Minimum Venting Open Factor {dimensionless}
    0,                       !- Indoor and Outdoor Temperature Difference Lower Limit For Maximum Venting Open Factor {deltaC}
    5,                       !- Indoor and Outdoor Temperature Difference Upper Limit for Minimum Venting Open Factor {deltaC}
    0,                       !- Indoor and Outdoor Enthalpy Difference Lower Limit For Maximum Venting Open Factor {deltaJ/kg}
    300000,                  !- Indoor and Outdoor Enthalpy Difference Upper Limit for Minimum Venting Open Factor {deltaJ/kg}
    TLB Occupation Schedule, !- Venting Availability Schedule Name
    ,                        !- Occupant Ventilation Control Name
    PolygonHeight,           !- Equivalent Rectangle Method
    1;                       !- Equivalent Rectangle Aspect Ratio {dimensionless}

AirflowNetwork:MultiZone:Surface,
    P3_W20 (Kitchen),        !- Surface Name
    Windows,                 !- Leakage Component Name
    ,                        !- External Node Name
    0.45,                    !- Window/Door Opening Factor, or Crack Factor {dimensionless}
    ZoneLevel,               !- Ventilation Control Mode
    VN_19,                   !- Ventilation Control Zone Temperature Setpoint Schedule Name
    0.45,                    !- Minimum Venting Open Factor {dimensionless}
    0,                       !- Indoor and Outdoor Temperature Difference Lower Limit For Maximum Venting Open Factor {deltaC}
    5,                       !- Indoor and Outdoor Temperature Difference Upper Limit for Minimum Venting Open Factor {deltaC}
    0,                       !- Indoor and Outdoor Enthalpy Difference Lower Limit For Maximum Venting Open Factor {deltaJ/kg}
    300000,                  !- Indoor and Outdoor Enthalpy Difference Upper Limit for Minimum Venting Open Factor {deltaJ/kg}
    TLB Occupation Schedule, !- Venting Availability Schedule Name
    ,                        !- Occupant Ventilation Control Name
    PolygonHeight,           !- Equivalent Rectangle Method
    1;                       !- Equivalent Rectangle Aspect Ratio {dimensionless}

AirflowNetwork:MultiZone:Surface,
    P4_W01,                  !- Surface Name
    Windows,                 !- Leakage Component Name
    ,                        !- External Node Name
    0.45,                    !- Window/Door Opening Factor, or Crack Factor {dimensionless}
    ZoneLevel,               !- Ventilation Control Mode
    VN_19,                   !- Ventilation Control Zone Temperature Setpoint Schedule Name
    0.45,                    !- Minimum Venting Open Factor {dimensionless}
    0,                       !- Indoor and Outdoor Temperature Difference Lower Limit For Maximum Venting Open Factor {deltaC}
    5,                       !- Indoor and Outdoor Temperature Difference Upper Limit for Minimum Venting Open Factor {deltaC}
    0,                       !- Indoor and Outdoor Enthalpy Difference Lower Limit For Maximum Venting Open Factor {deltaJ/kg}
    300000,                  !- Indoor and Outdoor Enthalpy Difference Upper Limit for Minimum Venting Open Factor {deltaJ/kg}
    TLB Occupation Schedule, !- Venting Availability Schedule Name
    ,                        !- Occupant Ventilation Control Name
    PolygonHeight,           !- Equivalent Rectangle Method
    1;                       !- Equivalent Rectangle Aspect Ratio {dimensionless}

AirflowNetwork:MultiZone:Surface,
    P4_W02,                  !- Surface Name
    Windows,                 !- Leakage Component Name
    ,                        !- External Node Name
    0.45,                    !- Window/Door Opening Factor, or Crack Factor {dimensionless}
    ZoneLevel,               !- Ventilation Control Mode
    VN_19,                   !- Ventilation Control Zone Temperature Setpoint Schedule Name
    0.45,                    !- Minimum Venting Open Factor {dimensionless}
    0,                       !- Indoor and Outdoor Temperature Difference Lower Limit For Maximum Venting Open Factor {deltaC}
    5,                       !- Indoor and Outdoor Temperature Difference Upper Limit for Minimum Venting Open Factor {deltaC}
    0,                       !- Indoor and Outdoor Enthalpy Difference Lower Limit For Maximum Venting Open Factor {deltaJ/kg}
    300000,                  !- Indoor and Outdoor Enthalpy Difference Upper Limit for Minimum Venting Open Factor {deltaJ/kg}
    TLB Occupation Schedule, !- Venting Availability Schedule Name
    ,                        !- Occupant Ventilation Control Name
    PolygonHeight,           !- Equivalent Rectangle Method
    1;                       !- Equivalent Rectangle Aspect Ratio {dimensionless}

AirflowNetwork:MultiZone:Surface,
    P4_W03 (Door),           !- Surface Name
    Doors,                   !- Leakage Component Name
    ,                        !- External Node Name
    0.45,                    !- Window/Door Opening Factor, or Crack Factor {dimensionless}
    ZoneLevel,               !- Ventilation Control Mode
    VN_19,                   !- Ventilation Control Zone Temperature Setpoint Schedule Name
    0.45,                    !- Minimum Venting Open Factor {dimensionless}
    0,                       !- Indoor and Outdoor Temperature Difference Lower Limit For Maximum Venting Open Factor {deltaC}
    5,                       !- Indoor and Outdoor Temperature Difference Upper Limit for Minimum Venting Open Factor {deltaC}
    0,                       !- Indoor and Outdoor Enthalpy Difference Lower Limit For Maximum Venting Open Factor {deltaJ/kg}
    300000,                  !- Indoor and Outdoor Enthalpy Difference Upper Limit for Minimum Venting Open Factor {deltaJ/kg}
    TLB Occupation Schedule, !- Venting Availability Schedule Name
    ,                        !- Occupant Ventilation Control Name
    PolygonHeight,           !- Equivalent Rectangle Method
    1;                       !- Equivalent Rectangle Aspect Ratio {dimensionless}

AirflowNetwork:MultiZone:Surface,
    P4_W04 (WC),             !- Surface Name
    Windows,                 !- Leakage Component Name
    ,                        !- External Node Name
    0.45,                    !- Window/Door Opening Factor, or Crack Factor {dimensionless}
    ZoneLevel,               !- Ventilation Control Mode
    VN_19,                   !- Ventilation Control Zone Temperature Setpoint Schedule Name
    0.45,                    !- Minimum Venting Open Factor {dimensionless}
    0,                       !- Indoor and Outdoor Temperature Difference Lower Limit For Maximum Venting Open Factor {deltaC}
    5,                       !- Indoor and Outdoor Temperature Difference Upper Limit for Minimum Venting Open Factor {deltaC}
    0,                       !- Indoor and Outdoor Enthalpy Difference Lower Limit For Maximum Venting Open Factor {deltaJ/kg}
    300000,                  !- Indoor and Outdoor Enthalpy Difference Upper Limit for Minimum Venting Open Factor {deltaJ/kg}
    TLB Occupation Schedule, !- Venting Availability Schedule Name
    ,                        !- Occupant Ventilation Control Name
    PolygonHeight,           !- Equivalent Rectangle Method
    1;                       !- Equivalent Rectangle Aspect Ratio {dimensionless}

AirflowNetwork:MultiZone:Surface,
    P4_W05 (Kitchen),        !- Surface Name
    Windows,                 !- Leakage Component Name
    ,                        !- External Node Name
    0.45,                    !- Window/Door Opening Factor, or Crack Factor {dimensionless}
    ZoneLevel,               !- Ventilation Control Mode
    VN_19,                   !- Ventilation Control Zone Temperature Setpoint Schedule Name
    0.45,                    !- Minimum Venting Open Factor {dimensionless}
    0,                       !- Indoor and Outdoor Temperature Difference Lower Limit For Maximum Venting Open Factor {deltaC}
    5,                       !- Indoor and Outdoor Temperature Difference Upper Limit for Minimum Venting Open Factor {deltaC}
    0,                       !- Indoor and Outdoor Enthalpy Difference Lower Limit For Maximum Venting Open Factor {deltaJ/kg}
    300000,                  !- Indoor and Outdoor Enthalpy Difference Upper Limit for Minimum Venting Open Factor {deltaJ/kg}
    TLB Occupation Schedule, !- Venting Availability Schedule Name
    ,                        !- Occupant Ventilation Control Name
    PolygonHeight,           !- Equivalent Rectangle Method
    1;                       !- Equivalent Rectangle Aspect Ratio {dimensionless}

AirflowNetwork:MultiZone:Surface,
    P4_W06,                  !- Surface Name
    Windows,                 !- Leakage Component Name
    ,                        !- External Node Name
    0.45,                    !- Window/Door Opening Factor, or Crack Factor {dimensionless}
    ZoneLevel,               !- Ventilation Control Mode
    VN_19,                   !- Ventilation Control Zone Temperature Setpoint Schedule Name
    0.45,                    !- Minimum Venting Open Factor {dimensionless}
    0,                       !- Indoor and Outdoor Temperature Difference Lower Limit For Maximum Venting Open Factor {deltaC}
    5,                       !- Indoor and Outdoor Temperature Difference Upper Limit for Minimum Venting Open Factor {deltaC}
    0,                       !- Indoor and Outdoor Enthalpy Difference Lower Limit For Maximum Venting Open Factor {deltaJ/kg}
    300000,                  !- Indoor and Outdoor Enthalpy Difference Upper Limit for Minimum Venting Open Factor {deltaJ/kg}
    TLB Occupation Schedule, !- Venting Availability Schedule Name
    ,                        !- Occupant Ventilation Control Name
    PolygonHeight,           !- Equivalent Rectangle Method
    1;                       !- Equivalent Rectangle Aspect Ratio {dimensionless}

AirflowNetwork:MultiZone:Surface,
    P4_W07,                  !- Surface Name
    Windows,                 !- Leakage Component Name
    ,                        !- External Node Name
    0.45,                    !- Window/Door Opening Factor, or Crack Factor {dimensionless}
    ZoneLevel,               !- Ventilation Control Mode
    VN_19,                   !- Ventilation Control Zone Temperature Setpoint Schedule Name
    0.45,                    !- Minimum Venting Open Factor {dimensionless}
    0,                       !- Indoor and Outdoor Temperature Difference Lower Limit For Maximum Venting Open Factor {deltaC}
    5,                       !- Indoor and Outdoor Temperature Difference Upper Limit for Minimum Venting Open Factor {deltaC}
    0,                       !- Indoor and Outdoor Enthalpy Difference Lower Limit For Maximum Venting Open Factor {deltaJ/kg}
    300000,                  !- Indoor and Outdoor Enthalpy Difference Upper Limit for Minimum Venting Open Factor {deltaJ/kg}
    TLB Occupation Schedule, !- Venting Availability Schedule Name
    ,                        !- Occupant Ventilation Control Name
    PolygonHeight,           !- Equivalent Rectangle Method
    1;                       !- Equivalent Rectangle Aspect Ratio {dimensionless}

AirflowNetwork:MultiZone:Surface,
    P4_W08 (Door),           !- Surface Name
    Doors,                   !- Leakage Component Name
    ,                        !- External Node Name
    0.45,                    !- Window/Door Opening Factor, or Crack Factor {dimensionless}
    ZoneLevel,               !- Ventilation Control Mode
    VN_19,                   !- Ventilation Control Zone Temperature Setpoint Schedule Name
    0.45,                    !- Minimum Venting Open Factor {dimensionless}
    0,                       !- Indoor and Outdoor Temperature Difference Lower Limit For Maximum Venting Open Factor {deltaC}
    5,                       !- Indoor and Outdoor Temperature Difference Upper Limit for Minimum Venting Open Factor {deltaC}
    0,                       !- Indoor and Outdoor Enthalpy Difference Lower Limit For Maximum Venting Open Factor {deltaJ/kg}
    300000,                  !- Indoor and Outdoor Enthalpy Difference Upper Limit for Minimum Venting Open Factor {deltaJ/kg}
    TLB Occupation Schedule, !- Venting Availability Schedule Name
    ,                        !- Occupant Ventilation Control Name
    PolygonHeight,           !- Equivalent Rectangle Method
    1;                       !- Equivalent Rectangle Aspect Ratio {dimensionless}

AirflowNetwork:MultiZone:Surface,
    P4_W09 (WC),             !- Surface Name
    Windows,                 !- Leakage Component Name
    ,                        !- External Node Name
    0.45,                    !- Window/Door Opening Factor, or Crack Factor {dimensionless}
    ZoneLevel,               !- Ventilation Control Mode
    VN_19,                   !- Ventilation Control Zone Temperature Setpoint Schedule Name
    0.45,                    !- Minimum Venting Open Factor {dimensionless}
    0,                       !- Indoor and Outdoor Temperature Difference Lower Limit For Maximum Venting Open Factor {deltaC}
    5,                       !- Indoor and Outdoor Temperature Difference Upper Limit for Minimum Venting Open Factor {deltaC}
    0,                       !- Indoor and Outdoor Enthalpy Difference Lower Limit For Maximum Venting Open Factor {deltaJ/kg}
    300000,                  !- Indoor and Outdoor Enthalpy Difference Upper Limit for Minimum Venting Open Factor {deltaJ/kg}
    TLB Occupation Schedule, !- Venting Availability Schedule Name
    ,                        !- Occupant Ventilation Control Name
    PolygonHeight,           !- Equivalent Rectangle Method
    1;                       !- Equivalent Rectangle Aspect Ratio {dimensionless}

AirflowNetwork:MultiZone:Surface,
    P4_W10 (Kitchen),        !- Surface Name
    Windows,                 !- Leakage Component Name
    ,                        !- External Node Name
    0.45,                    !- Window/Door Opening Factor, or Crack Factor {dimensionless}
    ZoneLevel,               !- Ventilation Control Mode
    VN_19,                   !- Ventilation Control Zone Temperature Setpoint Schedule Name
    0.45,                    !- Minimum Venting Open Factor {dimensionless}
    0,                       !- Indoor and Outdoor Temperature Difference Lower Limit For Maximum Venting Open Factor {deltaC}
    5,                       !- Indoor and Outdoor Temperature Difference Upper Limit for Minimum Venting Open Factor {deltaC}
    0,                       !- Indoor and Outdoor Enthalpy Difference Lower Limit For Maximum Venting Open Factor {deltaJ/kg}
    300000,                  !- Indoor and Outdoor Enthalpy Difference Upper Limit for Minimum Venting Open Factor {deltaJ/kg}
    TLB Occupation Schedule, !- Venting Availability Schedule Name
    ,                        !- Occupant Ventilation Control Name
    PolygonHeight,           !- Equivalent Rectangle Method
    1;                       !- Equivalent Rectangle Aspect Ratio {dimensionless}

AirflowNetwork:MultiZone:Surface,
    P4_W11,                  !- Surface Name
    Windows,                 !- Leakage Component Name
    ,                        !- External Node Name
    0.45,                    !- Window/Door Opening Factor, or Crack Factor {dimensionless}
    ZoneLevel,               !- Ventilation Control Mode
    VN_19,                   !- Ventilation Control Zone Temperature Setpoint Schedule Name
    0.45,                    !- Minimum Venting Open Factor {dimensionless}
    0,                       !- Indoor and Outdoor Temperature Difference Lower Limit For Maximum Venting Open Factor {deltaC}
    5,                       !- Indoor and Outdoor Temperature Difference Upper Limit for Minimum Venting Open Factor {deltaC}
    0,                       !- Indoor and Outdoor Enthalpy Difference Lower Limit For Maximum Venting Open Factor {deltaJ/kg}
    300000,                  !- Indoor and Outdoor Enthalpy Difference Upper Limit for Minimum Venting Open Factor {deltaJ/kg}
    TLB Occupation Schedule, !- Venting Availability Schedule Name
    ,                        !- Occupant Ventilation Control Name
    PolygonHeight,           !- Equivalent Rectangle Method
    1;                       !- Equivalent Rectangle Aspect Ratio {dimensionless}

AirflowNetwork:MultiZone:Surface,
    P4_W12,                  !- Surface Name
    Windows,                 !- Leakage Component Name
    ,                        !- External Node Name
    0.45,                    !- Window/Door Opening Factor, or Crack Factor {dimensionless}
    ZoneLevel,               !- Ventilation Control Mode
    VN_19,                   !- Ventilation Control Zone Temperature Setpoint Schedule Name
    0.45,                    !- Minimum Venting Open Factor {dimensionless}
    0,                       !- Indoor and Outdoor Temperature Difference Lower Limit For Maximum Venting Open Factor {deltaC}
    5,                       !- Indoor and Outdoor Temperature Difference Upper Limit for Minimum Venting Open Factor {deltaC}
    0,                       !- Indoor and Outdoor Enthalpy Difference Lower Limit For Maximum Venting Open Factor {deltaJ/kg}
    300000,                  !- Indoor and Outdoor Enthalpy Difference Upper Limit for Minimum Venting Open Factor {deltaJ/kg}
    TLB Occupation Schedule, !- Venting Availability Schedule Name
    ,                        !- Occupant Ventilation Control Name
    PolygonHeight,           !- Equivalent Rectangle Method
    1;                       !- Equivalent Rectangle Aspect Ratio {dimensionless}

AirflowNetwork:MultiZone:Surface,
    P4_W13 (Door),           !- Surface Name
    Doors,                   !- Leakage Component Name
    ,                        !- External Node Name
    0.45,                    !- Window/Door Opening Factor, or Crack Factor {dimensionless}
    ZoneLevel,               !- Ventilation Control Mode
    VN_19,                   !- Ventilation Control Zone Temperature Setpoint Schedule Name
    0.45,                    !- Minimum Venting Open Factor {dimensionless}
    0,                       !- Indoor and Outdoor Temperature Difference Lower Limit For Maximum Venting Open Factor {deltaC}
    5,                       !- Indoor and Outdoor Temperature Difference Upper Limit for Minimum Venting Open Factor {deltaC}
    0,                       !- Indoor and Outdoor Enthalpy Difference Lower Limit For Maximum Venting Open Factor {deltaJ/kg}
    300000,                  !- Indoor and Outdoor Enthalpy Difference Upper Limit for Minimum Venting Open Factor {deltaJ/kg}
    TLB Occupation Schedule, !- Venting Availability Schedule Name
    ,                        !- Occupant Ventilation Control Name
    PolygonHeight,           !- Equivalent Rectangle Method
    1;                       !- Equivalent Rectangle Aspect Ratio {dimensionless}

AirflowNetwork:MultiZone:Surface,
    P4_W14 (WC),             !- Surface Name
    Windows,                 !- Leakage Component Name
    ,                        !- External Node Name
    0.45,                    !- Window/Door Opening Factor, or Crack Factor {dimensionless}
    ZoneLevel,               !- Ventilation Control Mode
    VN_19,                   !- Ventilation Control Zone Temperature Setpoint Schedule Name
    0.45,                    !- Minimum Venting Open Factor {dimensionless}
    0,                       !- Indoor and Outdoor Temperature Difference Lower Limit For Maximum Venting Open Factor {deltaC}
    5,                       !- Indoor and Outdoor Temperature Difference Upper Limit for Minimum Venting Open Factor {deltaC}
    0,                       !- Indoor and Outdoor Enthalpy Difference Lower Limit For Maximum Venting Open Factor {deltaJ/kg}
    300000,                  !- Indoor and Outdoor Enthalpy Difference Upper Limit for Minimum Venting Open Factor {deltaJ/kg}
    TLB Occupation Schedule, !- Venting Availability Schedule Name
    ,                        !- Occupant Ventilation Control Name
    PolygonHeight,           !- Equivalent Rectangle Method
    1;                       !- Equivalent Rectangle Aspect Ratio {dimensionless}

AirflowNetwork:MultiZone:Surface,
    P4_W15 (Kitchen),        !- Surface Name
    Windows,                 !- Leakage Component Name
    ,                        !- External Node Name
    0.45,                    !- Window/Door Opening Factor, or Crack Factor {dimensionless}
    ZoneLevel,               !- Ventilation Control Mode
    VN_19,                   !- Ventilation Control Zone Temperature Setpoint Schedule Name
    0.45,                    !- Minimum Venting Open Factor {dimensionless}
    0,                       !- Indoor and Outdoor Temperature Difference Lower Limit For Maximum Venting Open Factor {deltaC}
    5,                       !- Indoor and Outdoor Temperature Difference Upper Limit for Minimum Venting Open Factor {deltaC}
    0,                       !- Indoor and Outdoor Enthalpy Difference Lower Limit For Maximum Venting Open Factor {deltaJ/kg}
    300000,                  !- Indoor and Outdoor Enthalpy Difference Upper Limit for Minimum Venting Open Factor {deltaJ/kg}
    TLB Occupation Schedule, !- Venting Availability Schedule Name
    ,                        !- Occupant Ventilation Control Name
    PolygonHeight,           !- Equivalent Rectangle Method
    1;                       !- Equivalent Rectangle Aspect Ratio {dimensionless}

AirflowNetwork:MultiZone:Surface,
    P4_W16,                  !- Surface Name
    Windows,                 !- Leakage Component Name
    ,                        !- External Node Name
    0.45,                    !- Window/Door Opening Factor, or Crack Factor {dimensionless}
    ZoneLevel,               !- Ventilation Control Mode
    VN_19,                   !- Ventilation Control Zone Temperature Setpoint Schedule Name
    0.45,                    !- Minimum Venting Open Factor {dimensionless}
    0,                       !- Indoor and Outdoor Temperature Difference Lower Limit For Maximum Venting Open Factor {deltaC}
    5,                       !- Indoor and Outdoor Temperature Difference Upper Limit for Minimum Venting Open Factor {deltaC}
    0,                       !- Indoor and Outdoor Enthalpy Difference Lower Limit For Maximum Venting Open Factor {deltaJ/kg}
    300000,                  !- Indoor and Outdoor Enthalpy Difference Upper Limit for Minimum Venting Open Factor {deltaJ/kg}
    TLB Occupation Schedule, !- Venting Availability Schedule Name
    ,                        !- Occupant Ventilation Control Name
    PolygonHeight,           !- Equivalent Rectangle Method
    1;                       !- Equivalent Rectangle Aspect Ratio {dimensionless}

AirflowNetwork:MultiZone:Surface,
    P4_W17,                  !- Surface Name
    Windows,                 !- Leakage Component Name
    ,                        !- External Node Name
    0.45,                    !- Window/Door Opening Factor, or Crack Factor {dimensionless}
    ZoneLevel,               !- Ventilation Control Mode
    VN_19,                   !- Ventilation Control Zone Temperature Setpoint Schedule Name
    0.45,                    !- Minimum Venting Open Factor {dimensionless}
    0,                       !- Indoor and Outdoor Temperature Difference Lower Limit For Maximum Venting Open Factor {deltaC}
    5,                       !- Indoor and Outdoor Temperature Difference Upper Limit for Minimum Venting Open Factor {deltaC}
    0,                       !- Indoor and Outdoor Enthalpy Difference Lower Limit For Maximum Venting Open Factor {deltaJ/kg}
    300000,                  !- Indoor and Outdoor Enthalpy Difference Upper Limit for Minimum Venting Open Factor {deltaJ/kg}
    TLB Occupation Schedule, !- Venting Availability Schedule Name
    ,                        !- Occupant Ventilation Control Name
    PolygonHeight,           !- Equivalent Rectangle Method
    1;                       !- Equivalent Rectangle Aspect Ratio {dimensionless}

AirflowNetwork:MultiZone:Surface,
    P4_W18 (Door),           !- Surface Name
    Doors,                   !- Leakage Component Name
    ,                        !- External Node Name
    0.45,                    !- Window/Door Opening Factor, or Crack Factor {dimensionless}
    ZoneLevel,               !- Ventilation Control Mode
    VN_19,                   !- Ventilation Control Zone Temperature Setpoint Schedule Name
    0.45,                    !- Minimum Venting Open Factor {dimensionless}
    0,                       !- Indoor and Outdoor Temperature Difference Lower Limit For Maximum Venting Open Factor {deltaC}
    5,                       !- Indoor and Outdoor Temperature Difference Upper Limit for Minimum Venting Open Factor {deltaC}
    0,                       !- Indoor and Outdoor Enthalpy Difference Lower Limit For Maximum Venting Open Factor {deltaJ/kg}
    300000,                  !- Indoor and Outdoor Enthalpy Difference Upper Limit for Minimum Venting Open Factor {deltaJ/kg}
    TLB Occupation Schedule, !- Venting Availability Schedule Name
    ,                        !- Occupant Ventilation Control Name
    PolygonHeight,           !- Equivalent Rectangle Method
    1;                       !- Equivalent Rectangle Aspect Ratio {dimensionless}

AirflowNetwork:MultiZone:Surface,
    P4_W19 (WC),             !- Surface Name
    Windows,                 !- Leakage Component Name
    ,                        !- External Node Name
    0.45,                    !- Window/Door Opening Factor, or Crack Factor {dimensionless}
    ZoneLevel,               !- Ventilation Control Mode
    VN_19,                   !- Ventilation Control Zone Temperature Setpoint Schedule Name
    0.45,                    !- Minimum Venting Open Factor {dimensionless}
    0,                       !- Indoor and Outdoor Temperature Difference Lower Limit For Maximum Venting Open Factor {deltaC}
    5,                       !- Indoor and Outdoor Temperature Difference Upper Limit for Minimum Venting Open Factor {deltaC}
    0,                       !- Indoor and Outdoor Enthalpy Difference Lower Limit For Maximum Venting Open Factor {deltaJ/kg}
    300000,                  !- Indoor and Outdoor Enthalpy Difference Upper Limit for Minimum Venting Open Factor {deltaJ/kg}
    TLB Occupation Schedule, !- Venting Availability Schedule Name
    ,                        !- Occupant Ventilation Control Name
    PolygonHeight,           !- Equivalent Rectangle Method
    1;                       !- Equivalent Rectangle Aspect Ratio {dimensionless}

AirflowNetwork:MultiZone:Surface,
    P4_W20 (Kitchen),        !- Surface Name
    Windows,                 !- Leakage Component Name
    ,                        !- External Node Name
    0.45,                    !- Window/Door Opening Factor, or Crack Factor {dimensionless}
    ZoneLevel,               !- Ventilation Control Mode
    VN_19,                   !- Ventilation Control Zone Temperature Setpoint Schedule Name
    0.45,                    !- Minimum Venting Open Factor {dimensionless}
    0,                       !- Indoor and Outdoor Temperature Difference Lower Limit For Maximum Venting Open Factor {deltaC}
    5,                       !- Indoor and Outdoor Temperature Difference Upper Limit for Minimum Venting Open Factor {deltaC}
    0,                       !- Indoor and Outdoor Enthalpy Difference Lower Limit For Maximum Venting Open Factor {deltaJ/kg}
    300000,                  !- Indoor and Outdoor Enthalpy Difference Upper Limit for Minimum Venting Open Factor {deltaJ/kg}
    TLB Occupation Schedule, !- Venting Availability Schedule Name
    ,                        !- Occupant Ventilation Control Name
    PolygonHeight,           !- Equivalent Rectangle Method
    1;                       !- Equivalent Rectangle Aspect Ratio {dimensionless}

AirflowNetwork:MultiZone:Surface,
    P5_W01,                  !- Surface Name
    Windows,                 !- Leakage Component Name
    ,                        !- External Node Name
    0.45,                    !- Window/Door Opening Factor, or Crack Factor {dimensionless}
    ZoneLevel,               !- Ventilation Control Mode
    VN_19,                   !- Ventilation Control Zone Temperature Setpoint Schedule Name
    0.45,                    !- Minimum Venting Open Factor {dimensionless}
    0,                       !- Indoor and Outdoor Temperature Difference Lower Limit For Maximum Venting Open Factor {deltaC}
    5,                       !- Indoor and Outdoor Temperature Difference Upper Limit for Minimum Venting Open Factor {deltaC}
    0,                       !- Indoor and Outdoor Enthalpy Difference Lower Limit For Maximum Venting Open Factor {deltaJ/kg}
    300000,                  !- Indoor and Outdoor Enthalpy Difference Upper Limit for Minimum Venting Open Factor {deltaJ/kg}
    TLB Occupation Schedule, !- Venting Availability Schedule Name
    ,                        !- Occupant Ventilation Control Name
    PolygonHeight,           !- Equivalent Rectangle Method
    1;                       !- Equivalent Rectangle Aspect Ratio {dimensionless}

AirflowNetwork:MultiZone:Surface,
    P5_W02,                  !- Surface Name
    Windows,                 !- Leakage Component Name
    ,                        !- External Node Name
    0.45,                    !- Window/Door Opening Factor, or Crack Factor {dimensionless}
    ZoneLevel,               !- Ventilation Control Mode
    VN_19,                   !- Ventilation Control Zone Temperature Setpoint Schedule Name
    0.45,                    !- Minimum Venting Open Factor {dimensionless}
    0,                       !- Indoor and Outdoor Temperature Difference Lower Limit For Maximum Venting Open Factor {deltaC}
    5,                       !- Indoor and Outdoor Temperature Difference Upper Limit for Minimum Venting Open Factor {deltaC}
    0,                       !- Indoor and Outdoor Enthalpy Difference Lower Limit For Maximum Venting Open Factor {deltaJ/kg}
    300000,                  !- Indoor and Outdoor Enthalpy Difference Upper Limit for Minimum Venting Open Factor {deltaJ/kg}
    TLB Occupation Schedule, !- Venting Availability Schedule Name
    ,                        !- Occupant Ventilation Control Name
    PolygonHeight,           !- Equivalent Rectangle Method
    1;                       !- Equivalent Rectangle Aspect Ratio {dimensionless}

AirflowNetwork:MultiZone:Surface,
    P5_W03 (Door),           !- Surface Name
    Doors,                   !- Leakage Component Name
    ,                        !- External Node Name
    0.45,                    !- Window/Door Opening Factor, or Crack Factor {dimensionless}
    ZoneLevel,               !- Ventilation Control Mode
    VN_19,                   !- Ventilation Control Zone Temperature Setpoint Schedule Name
    0.45,                    !- Minimum Venting Open Factor {dimensionless}
    0,                       !- Indoor and Outdoor Temperature Difference Lower Limit For Maximum Venting Open Factor {deltaC}
    5,                       !- Indoor and Outdoor Temperature Difference Upper Limit for Minimum Venting Open Factor {deltaC}
    0,                       !- Indoor and Outdoor Enthalpy Difference Lower Limit For Maximum Venting Open Factor {deltaJ/kg}
    300000,                  !- Indoor and Outdoor Enthalpy Difference Upper Limit for Minimum Venting Open Factor {deltaJ/kg}
    TLB Occupation Schedule, !- Venting Availability Schedule Name
    ,                        !- Occupant Ventilation Control Name
    PolygonHeight,           !- Equivalent Rectangle Method
    1;                       !- Equivalent Rectangle Aspect Ratio {dimensionless}

AirflowNetwork:MultiZone:Surface,
    P5_W04 (WC),             !- Surface Name
    Windows,                 !- Leakage Component Name
    ,                        !- External Node Name
    0.45,                    !- Window/Door Opening Factor, or Crack Factor {dimensionless}
    ZoneLevel,               !- Ventilation Control Mode
    VN_19,                   !- Ventilation Control Zone Temperature Setpoint Schedule Name
    0.45,                    !- Minimum Venting Open Factor {dimensionless}
    0,                       !- Indoor and Outdoor Temperature Difference Lower Limit For Maximum Venting Open Factor {deltaC}
    5,                       !- Indoor and Outdoor Temperature Difference Upper Limit for Minimum Venting Open Factor {deltaC}
    0,                       !- Indoor and Outdoor Enthalpy Difference Lower Limit For Maximum Venting Open Factor {deltaJ/kg}
    300000,                  !- Indoor and Outdoor Enthalpy Difference Upper Limit for Minimum Venting Open Factor {deltaJ/kg}
    TLB Occupation Schedule, !- Venting Availability Schedule Name
    ,                        !- Occupant Ventilation Control Name
    PolygonHeight,           !- Equivalent Rectangle Method
    1;                       !- Equivalent Rectangle Aspect Ratio {dimensionless}

AirflowNetwork:MultiZone:Surface,
    P5_W05 (Kitchen),        !- Surface Name
    Windows,                 !- Leakage Component Name
    ,                        !- External Node Name
    0.45,                    !- Window/Door Opening Factor, or Crack Factor {dimensionless}
    ZoneLevel,               !- Ventilation Control Mode
    VN_19,                   !- Ventilation Control Zone Temperature Setpoint Schedule Name
    0.45,                    !- Minimum Venting Open Factor {dimensionless}
    0,                       !- Indoor and Outdoor Temperature Difference Lower Limit For Maximum Venting Open Factor {deltaC}
    5,                       !- Indoor and Outdoor Temperature Difference Upper Limit for Minimum Venting Open Factor {deltaC}
    0,                       !- Indoor and Outdoor Enthalpy Difference Lower Limit For Maximum Venting Open Factor {deltaJ/kg}
    300000,                  !- Indoor and Outdoor Enthalpy Difference Upper Limit for Minimum Venting Open Factor {deltaJ/kg}
    TLB Occupation Schedule, !- Venting Availability Schedule Name
    ,                        !- Occupant Ventilation Control Name
    PolygonHeight,           !- Equivalent Rectangle Method
    1;                       !- Equivalent Rectangle Aspect Ratio {dimensionless}

AirflowNetwork:MultiZone:Surface,
    P5_W06,                  !- Surface Name
    Windows,                 !- Leakage Component Name
    ,                        !- External Node Name
    0.45,                    !- Window/Door Opening Factor, or Crack Factor {dimensionless}
    ZoneLevel,               !- Ventilation Control Mode
    VN_19,                   !- Ventilation Control Zone Temperature Setpoint Schedule Name
    0.45,                    !- Minimum Venting Open Factor {dimensionless}
    0,                       !- Indoor and Outdoor Temperature Difference Lower Limit For Maximum Venting Open Factor {deltaC}
    5,                       !- Indoor and Outdoor Temperature Difference Upper Limit for Minimum Venting Open Factor {deltaC}
    0,                       !- Indoor and Outdoor Enthalpy Difference Lower Limit For Maximum Venting Open Factor {deltaJ/kg}
    300000,                  !- Indoor and Outdoor Enthalpy Difference Upper Limit for Minimum Venting Open Factor {deltaJ/kg}
    TLB Occupation Schedule, !- Venting Availability Schedule Name
    ,                        !- Occupant Ventilation Control Name
    PolygonHeight,           !- Equivalent Rectangle Method
    1;                       !- Equivalent Rectangle Aspect Ratio {dimensionless}

AirflowNetwork:MultiZone:Surface,
    P5_W07,                  !- Surface Name
    Windows,                 !- Leakage Component Name
    ,                        !- External Node Name
    0.45,                    !- Window/Door Opening Factor, or Crack Factor {dimensionless}
    ZoneLevel,               !- Ventilation Control Mode
    VN_19,                   !- Ventilation Control Zone Temperature Setpoint Schedule Name
    0.45,                    !- Minimum Venting Open Factor {dimensionless}
    0,                       !- Indoor and Outdoor Temperature Difference Lower Limit For Maximum Venting Open Factor {deltaC}
    5,                       !- Indoor and Outdoor Temperature Difference Upper Limit for Minimum Venting Open Factor {deltaC}
    0,                       !- Indoor and Outdoor Enthalpy Difference Lower Limit For Maximum Venting Open Factor {deltaJ/kg}
    300000,                  !- Indoor and Outdoor Enthalpy Difference Upper Limit for Minimum Venting Open Factor {deltaJ/kg}
    TLB Occupation Schedule, !- Venting Availability Schedule Name
    ,                        !- Occupant Ventilation Control Name
    PolygonHeight,           !- Equivalent Rectangle Method
    1;                       !- Equivalent Rectangle Aspect Ratio {dimensionless}

AirflowNetwork:MultiZone:Surface,
    P5_W08 (Door),           !- Surface Name
    Doors,                   !- Leakage Component Name
    ,                        !- External Node Name
    0.45,                    !- Window/Door Opening Factor, or Crack Factor {dimensionless}
    ZoneLevel,               !- Ventilation Control Mode
    VN_19,                   !- Ventilation Control Zone Temperature Setpoint Schedule Name
    0.45,                    !- Minimum Venting Open Factor {dimensionless}
    0,                       !- Indoor and Outdoor Temperature Difference Lower Limit For Maximum Venting Open Factor {deltaC}
    5,                       !- Indoor and Outdoor Temperature Difference Upper Limit for Minimum Venting Open Factor {deltaC}
    0,                       !- Indoor and Outdoor Enthalpy Difference Lower Limit For Maximum Venting Open Factor {deltaJ/kg}
    300000,                  !- Indoor and Outdoor Enthalpy Difference Upper Limit for Minimum Venting Open Factor {deltaJ/kg}
    TLB Occupation Schedule, !- Venting Availability Schedule Name
    ,                        !- Occupant Ventilation Control Name
    PolygonHeight,           !- Equivalent Rectangle Method
    1;                       !- Equivalent Rectangle Aspect Ratio {dimensionless}

AirflowNetwork:MultiZone:Surface,
    P5_W09 (WC),             !- Surface Name
    Windows,                 !- Leakage Component Name
    ,                        !- External Node Name
    0.45,                    !- Window/Door Opening Factor, or Crack Factor {dimensionless}
    ZoneLevel,               !- Ventilation Control Mode
    VN_19,                   !- Ventilation Control Zone Temperature Setpoint Schedule Name
    0.45,                    !- Minimum Venting Open Factor {dimensionless}
    0,                       !- Indoor and Outdoor Temperature Difference Lower Limit For Maximum Venting Open Factor {deltaC}
    5,                       !- Indoor and Outdoor Temperature Difference Upper Limit for Minimum Venting Open Factor {deltaC}
    0,                       !- Indoor and Outdoor Enthalpy Difference Lower Limit For Maximum Venting Open Factor {deltaJ/kg}
    300000,                  !- Indoor and Outdoor Enthalpy Difference Upper Limit for Minimum Venting Open Factor {deltaJ/kg}
    TLB Occupation Schedule, !- Venting Availability Schedule Name
    ,                        !- Occupant Ventilation Control Name
    PolygonHeight,           !- Equivalent Rectangle Method
    1;                       !- Equivalent Rectangle Aspect Ratio {dimensionless}

AirflowNetwork:MultiZone:Surface,
    P5_W10 (Kitchen),        !- Surface Name
    Windows,                 !- Leakage Component Name
    ,                        !- External Node Name
    0.45,                    !- Window/Door Opening Factor, or Crack Factor {dimensionless}
    ZoneLevel,               !- Ventilation Control Mode
    VN_19,                   !- Ventilation Control Zone Temperature Setpoint Schedule Name
    0.45,                    !- Minimum Venting Open Factor {dimensionless}
    0,                       !- Indoor and Outdoor Temperature Difference Lower Limit For Maximum Venting Open Factor {deltaC}
    5,                       !- Indoor and Outdoor Temperature Difference Upper Limit for Minimum Venting Open Factor {deltaC}
    0,                       !- Indoor and Outdoor Enthalpy Difference Lower Limit For Maximum Venting Open Factor {deltaJ/kg}
    300000,                  !- Indoor and Outdoor Enthalpy Difference Upper Limit for Minimum Venting Open Factor {deltaJ/kg}
    TLB Occupation Schedule, !- Venting Availability Schedule Name
    ,                        !- Occupant Ventilation Control Name
    PolygonHeight,           !- Equivalent Rectangle Method
    1;                       !- Equivalent Rectangle Aspect Ratio {dimensionless}

AirflowNetwork:MultiZone:Surface,
    P5_W11,                  !- Surface Name
    Windows,                 !- Leakage Component Name
    ,                        !- External Node Name
    0.45,                    !- Window/Door Opening Factor, or Crack Factor {dimensionless}
    ZoneLevel,               !- Ventilation Control Mode
    VN_19,                   !- Ventilation Control Zone Temperature Setpoint Schedule Name
    0.45,                    !- Minimum Venting Open Factor {dimensionless}
    0,                       !- Indoor and Outdoor Temperature Difference Lower Limit For Maximum Venting Open Factor {deltaC}
    5,                       !- Indoor and Outdoor Temperature Difference Upper Limit for Minimum Venting Open Factor {deltaC}
    0,                       !- Indoor and Outdoor Enthalpy Difference Lower Limit For Maximum Venting Open Factor {deltaJ/kg}
    300000,                  !- Indoor and Outdoor Enthalpy Difference Upper Limit for Minimum Venting Open Factor {deltaJ/kg}
    TLB Occupation Schedule, !- Venting Availability Schedule Name
    ,                        !- Occupant Ventilation Control Name
    PolygonHeight,           !- Equivalent Rectangle Method
    1;                       !- Equivalent Rectangle Aspect Ratio {dimensionless}

AirflowNetwork:MultiZone:Surface,
    P5_W12,                  !- Surface Name
    Windows,                 !- Leakage Component Name
    ,                        !- External Node Name
    0.45,                    !- Window/Door Opening Factor, or Crack Factor {dimensionless}
    ZoneLevel,               !- Ventilation Control Mode
    VN_19,                   !- Ventilation Control Zone Temperature Setpoint Schedule Name
    0.45,                    !- Minimum Venting Open Factor {dimensionless}
    0,                       !- Indoor and Outdoor Temperature Difference Lower Limit For Maximum Venting Open Factor {deltaC}
    5,                       !- Indoor and Outdoor Temperature Difference Upper Limit for Minimum Venting Open Factor {deltaC}
    0,                       !- Indoor and Outdoor Enthalpy Difference Lower Limit For Maximum Venting Open Factor {deltaJ/kg}
    300000,                  !- Indoor and Outdoor Enthalpy Difference Upper Limit for Minimum Venting Open Factor {deltaJ/kg}
    TLB Occupation Schedule, !- Venting Availability Schedule Name
    ,                        !- Occupant Ventilation Control Name
    PolygonHeight,           !- Equivalent Rectangle Method
    1;                       !- Equivalent Rectangle Aspect Ratio {dimensionless}

AirflowNetwork:MultiZone:Surface,
    P5_W13 (Door),           !- Surface Name
    Doors,                   !- Leakage Component Name
    ,                        !- External Node Name
    0.45,                    !- Window/Door Opening Factor, or Crack Factor {dimensionless}
    ZoneLevel,               !- Ventilation Control Mode
    VN_19,                   !- Ventilation Control Zone Temperature Setpoint Schedule Name
    0.45,                    !- Minimum Venting Open Factor {dimensionless}
    0,                       !- Indoor and Outdoor Temperature Difference Lower Limit For Maximum Venting Open Factor {deltaC}
    5,                       !- Indoor and Outdoor Temperature Difference Upper Limit for Minimum Venting Open Factor {deltaC}
    0,                       !- Indoor and Outdoor Enthalpy Difference Lower Limit For Maximum Venting Open Factor {deltaJ/kg}
    300000,                  !- Indoor and Outdoor Enthalpy Difference Upper Limit for Minimum Venting Open Factor {deltaJ/kg}
    TLB Occupation Schedule, !- Venting Availability Schedule Name
    ,                        !- Occupant Ventilation Control Name
    PolygonHeight,           !- Equivalent Rectangle Method
    1;                       !- Equivalent Rectangle Aspect Ratio {dimensionless}

AirflowNetwork:MultiZone:Surface,
    P5_W14 (WC),             !- Surface Name
    Windows,                 !- Leakage Component Name
    ,                        !- External Node Name
    0.45,                    !- Window/Door Opening Factor, or Crack Factor {dimensionless}
    ZoneLevel,               !- Ventilation Control Mode
    VN_19,                   !- Ventilation Control Zone Temperature Setpoint Schedule Name
    0.45,                    !- Minimum Venting Open Factor {dimensionless}
    0,                       !- Indoor and Outdoor Temperature Difference Lower Limit For Maximum Venting Open Factor {deltaC}
    5,                       !- Indoor and Outdoor Temperature Difference Upper Limit for Minimum Venting Open Factor {deltaC}
    0,                       !- Indoor and Outdoor Enthalpy Difference Lower Limit For Maximum Venting Open Factor {deltaJ/kg}
    300000,                  !- Indoor and Outdoor Enthalpy Difference Upper Limit for Minimum Venting Open Factor {deltaJ/kg}
    TLB Occupation Schedule, !- Venting Availability Schedule Name
    ,                        !- Occupant Ventilation Control Name
    PolygonHeight,           !- Equivalent Rectangle Method
    1;                       !- Equivalent Rectangle Aspect Ratio {dimensionless}

AirflowNetwork:MultiZone:Surface,
    P5_W15 (Kitchen),        !- Surface Name
    Windows,                 !- Leakage Component Name
    ,                        !- External Node Name
    0.45,                    !- Window/Door Opening Factor, or Crack Factor {dimensionless}
    ZoneLevel,               !- Ventilation Control Mode
    VN_19,                   !- Ventilation Control Zone Temperature Setpoint Schedule Name
    0.45,                    !- Minimum Venting Open Factor {dimensionless}
    0,                       !- Indoor and Outdoor Temperature Difference Lower Limit For Maximum Venting Open Factor {deltaC}
    5,                       !- Indoor and Outdoor Temperature Difference Upper Limit for Minimum Venting Open Factor {deltaC}
    0,                       !- Indoor and Outdoor Enthalpy Difference Lower Limit For Maximum Venting Open Factor {deltaJ/kg}
    300000,                  !- Indoor and Outdoor Enthalpy Difference Upper Limit for Minimum Venting Open Factor {deltaJ/kg}
    TLB Occupation Schedule, !- Venting Availability Schedule Name
    ,                        !- Occupant Ventilation Control Name
    PolygonHeight,           !- Equivalent Rectangle Method
    1;                       !- Equivalent Rectangle Aspect Ratio {dimensionless}

AirflowNetwork:MultiZone:Surface,
    P5_W16,                  !- Surface Name
    Windows,                 !- Leakage Component Name
    ,                        !- External Node Name
    0.45,                    !- Window/Door Opening Factor, or Crack Factor {dimensionless}
    ZoneLevel,               !- Ventilation Control Mode
    VN_19,                   !- Ventilation Control Zone Temperature Setpoint Schedule Name
    0.45,                    !- Minimum Venting Open Factor {dimensionless}
    0,                       !- Indoor and Outdoor Temperature Difference Lower Limit For Maximum Venting Open Factor {deltaC}
    5,                       !- Indoor and Outdoor Temperature Difference Upper Limit for Minimum Venting Open Factor {deltaC}
    0,                       !- Indoor and Outdoor Enthalpy Difference Lower Limit For Maximum Venting Open Factor {deltaJ/kg}
    300000,                  !- Indoor and Outdoor Enthalpy Difference Upper Limit for Minimum Venting Open Factor {deltaJ/kg}
    TLB Occupation Schedule, !- Venting Availability Schedule Name
    ,                        !- Occupant Ventilation Control Name
    PolygonHeight,           !- Equivalent Rectangle Method
    1;                       !- Equivalent Rectangle Aspect Ratio {dimensionless}

AirflowNetwork:MultiZone:Surface,
    P5_W17,                  !- Surface Name
    Windows,                 !- Leakage Component Name
    ,                        !- External Node Name
    0.45,                    !- Window/Door Opening Factor, or Crack Factor {dimensionless}
    ZoneLevel,               !- Ventilation Control Mode
    VN_19,                   !- Ventilation Control Zone Temperature Setpoint Schedule Name
    0.45,                    !- Minimum Venting Open Factor {dimensionless}
    0,                       !- Indoor and Outdoor Temperature Difference Lower Limit For Maximum Venting Open Factor {deltaC}
    5,                       !- Indoor and Outdoor Temperature Difference Upper Limit for Minimum Venting Open Factor {deltaC}
    0,                       !- Indoor and Outdoor Enthalpy Difference Lower Limit For Maximum Venting Open Factor {deltaJ/kg}
    300000,                  !- Indoor and Outdoor Enthalpy Difference Upper Limit for Minimum Venting Open Factor {deltaJ/kg}
    TLB Occupation Schedule, !- Venting Availability Schedule Name
    ,                        !- Occupant Ventilation Control Name
    PolygonHeight,           !- Equivalent Rectangle Method
    1;                       !- Equivalent Rectangle Aspect Ratio {dimensionless}

AirflowNetwork:MultiZone:Surface,
    P5_W18 (Door),           !- Surface Name
    Doors,                   !- Leakage Component Name
    ,                        !- External Node Name
    0.45,                    !- Window/Door Opening Factor, or Crack Factor {dimensionless}
    ZoneLevel,               !- Ventilation Control Mode
    VN_19,                   !- Ventilation Control Zone Temperature Setpoint Schedule Name
    0.45,                    !- Minimum Venting Open Factor {dimensionless}
    0,                       !- Indoor and Outdoor Temperature Difference Lower Limit For Maximum Venting Open Factor {deltaC}
    5,                       !- Indoor and Outdoor Temperature Difference Upper Limit for Minimum Venting Open Factor {deltaC}
    0,                       !- Indoor and Outdoor Enthalpy Difference Lower Limit For Maximum Venting Open Factor {deltaJ/kg}
    300000,                  !- Indoor and Outdoor Enthalpy Difference Upper Limit for Minimum Venting Open Factor {deltaJ/kg}
    TLB Occupation Schedule, !- Venting Availability Schedule Name
    ,                        !- Occupant Ventilation Control Name
    PolygonHeight,           !- Equivalent Rectangle Method
    1;                       !- Equivalent Rectangle Aspect Ratio {dimensionless}

AirflowNetwork:MultiZone:Surface,
    P5_W19 (WC),             !- Surface Name
    Windows,                 !- Leakage Component Name
    ,                        !- External Node Name
    0.45,                    !- Window/Door Opening Factor, or Crack Factor {dimensionless}
    ZoneLevel,               !- Ventilation Control Mode
    VN_19,                   !- Ventilation Control Zone Temperature Setpoint Schedule Name
    0.45,                    !- Minimum Venting Open Factor {dimensionless}
    0,                       !- Indoor and Outdoor Temperature Difference Lower Limit For Maximum Venting Open Factor {deltaC}
    5,                       !- Indoor and Outdoor Temperature Difference Upper Limit for Minimum Venting Open Factor {deltaC}
    0,                       !- Indoor and Outdoor Enthalpy Difference Lower Limit For Maximum Venting Open Factor {deltaJ/kg}
    300000,                  !- Indoor and Outdoor Enthalpy Difference Upper Limit for Minimum Venting Open Factor {deltaJ/kg}
    TLB Occupation Schedule, !- Venting Availability Schedule Name
    ,                        !- Occupant Ventilation Control Name
    PolygonHeight,           !- Equivalent Rectangle Method
    1;                       !- Equivalent Rectangle Aspect Ratio {dimensionless}

AirflowNetwork:MultiZone:Surface,
    P5_W20 (Kitchen),        !- Surface Name
    Windows,                 !- Leakage Component Name
    ,                        !- External Node Name
    0.45,                    !- Window/Door Opening Factor, or Crack Factor {dimensionless}
    ZoneLevel,               !- Ventilation Control Mode
    VN_19,                   !- Ventilation Control Zone Temperature Setpoint Schedule Name
    0.45,                    !- Minimum Venting Open Factor {dimensionless}
    0,                       !- Indoor and Outdoor Temperature Difference Lower Limit For Maximum Venting Open Factor {deltaC}
    5,                       !- Indoor and Outdoor Temperature Difference Upper Limit for Minimum Venting Open Factor {deltaC}
    0,                       !- Indoor and Outdoor Enthalpy Difference Lower Limit For Maximum Venting Open Factor {deltaJ/kg}
    300000,                  !- Indoor and Outdoor Enthalpy Difference Upper Limit for Minimum Venting Open Factor {deltaJ/kg}
    TLB Occupation Schedule, !- Venting Availability Schedule Name
    ,                        !- Occupant Ventilation Control Name
    PolygonHeight,           !- Equivalent Rectangle Method
    1;                       !- Equivalent Rectangle Aspect Ratio {dimensionless}


!-   ===========  ALL OBJECTS IN CLASS: AIRFLOWNETWORK:MULTIZONE:COMPONENT:DETAILEDOPENING ===========

AirflowNetwork:MultiZone:Component:DetailedOpening,
    Doors,                   !- Name
    0.0024,                  !- Air Mass Flow Coefficient When Opening is Closed {kg/s-m}
    0.59,                    !- Air Mass Flow Exponent When Opening is Closed {dimensionless}
    NonPivoted,              !- Type of Rectangular Large Vertical Opening (LVO)
    0,                       !- Extra Crack Length or Height of Pivoting Axis {m}
    2,                       !- Number of Sets of Opening Factor Data
    0,                       !- Opening Factor 1 {dimensionless}
    0.001,                   !- Discharge Coefficient for Opening Factor 1 {dimensionless}
    0,                       !- Width Factor for Opening Factor 1 {dimensionless}
    1,                       !- Height Factor for Opening Factor 1 {dimensionless}
    0,                       !- Start Height Factor for Opening Factor 1 {dimensionless}
    1,                       !- Opening Factor 2 {dimensionless}
    0.6,                     !- Discharge Coefficient for Opening Factor 2 {dimensionless}
    1,                       !- Width Factor for Opening Factor 2 {dimensionless}
    1,                       !- Height Factor for Opening Factor 2 {dimensionless}
    0;                       !- Start Height Factor for Opening Factor 2 {dimensionless}

AirflowNetwork:MultiZone:Component:DetailedOpening,
    Windows,                 !- Name
    0.00063,                 !- Air Mass Flow Coefficient When Opening is Closed {kg/s-m}
    0.65,                    !- Air Mass Flow Exponent When Opening is Closed {dimensionless}
    NonPivoted,              !- Type of Rectangular Large Vertical Opening (LVO)
    0.3,                     !- Extra Crack Length or Height of Pivoting Axis {m}
    2,                       !- Number of Sets of Opening Factor Data
    0,                       !- Opening Factor 1 {dimensionless}
    0.001,                   !- Discharge Coefficient for Opening Factor 1 {dimensionless}
    0,                       !- Width Factor for Opening Factor 1 {dimensionless}
    1,                       !- Height Factor for Opening Factor 1 {dimensionless}
    0,                       !- Start Height Factor for Opening Factor 1 {dimensionless}
    1,                       !- Opening Factor 2 {dimensionless}
    0.6,                     !- Discharge Coefficient for Opening Factor 2 {dimensionless}
    0.9,                     !- Width Factor for Opening Factor 2 {dimensionless}
    1,                       !- Height Factor for Opening Factor 2 {dimensionless}
    0;                       !- Start Height Factor for Opening Factor 2 {dimensionless}


!-   ===========  ALL OBJECTS IN CLASS: HVACTEMPLATE:THERMOSTAT ===========

HVACTemplate:Thermostat,
    Thermostat,              !- Name
    ,                        !- Heating Setpoint Schedule Name
    21,                      !- Constant Heating Setpoint {C}
    ,                        !- Cooling Setpoint Schedule Name
    23;                      !- Constant Cooling Setpoint {C}


!-   ===========  ALL OBJECTS IN CLASS: HVACTEMPLATE:ZONE:IDEALLOADSAIRSYSTEM ===========

HVACTemplate:Zone:IdealLoadsAirSystem,
    APTO01_P1,               !- Zone Name
    Thermostat,              !- Template Thermostat Name
    TLB Occupation Schedule, !- System Availability Schedule Name
    30,                      !- Maximum Heating Supply Air Temperature {C}
    13,                      !- Minimum Cooling Supply Air Temperature {C}
    0.0156,                  !- Maximum Heating Supply Air Humidity Ratio {kgWater/kgDryAir}
    0.0077,                  !- Minimum Cooling Supply Air Humidity Ratio {kgWater/kgDryAir}
    NoLimit,                 !- Heating Limit
    ,                        !- Maximum Heating Air Flow Rate {m3/s}
    ,                        !- Maximum Sensible Heating Capacity {W}
    NoLimit,                 !- Cooling Limit
    ,                        !- Maximum Cooling Air Flow Rate {m3/s}
    ,                        !- Maximum Total Cooling Capacity {W}
    ,                        !- Heating Availability Schedule Name
    ,                        !- Cooling Availability Schedule Name
    ConstantSensibleHeatRatio,  !- Dehumidification Control Type
    0.7,                     !- Cooling Sensible Heat Ratio {dimensionless}
    60,                      !- Dehumidification Setpoint {percent}
    None,                    !- Humidification Control Type
    30,                      !- Humidification Setpoint {percent}
    None,                    !- Outdoor Air Method
    0.0075,                  !- Outdoor Air Flow Rate per Person {m3/s}
    ,                        !- Outdoor Air Flow Rate per Zone Floor Area {m3/s-m2}
    ,                        !- Outdoor Air Flow Rate per Zone {m3/s}
    ,                        !- Design Specification Outdoor Air Object Name
    None,                    !- Demand Controlled Ventilation Type
    NoEconomizer,            !- Outdoor Air Economizer Type
    None,                    !- Heat Recovery Type
    0.7,                     !- Sensible Heat Recovery Effectiveness {dimensionless}
    0.65;                    !- Latent Heat Recovery Effectiveness {dimensionless}

HVACTemplate:Zone:IdealLoadsAirSystem,
    APTO01_P2,               !- Zone Name
    Thermostat,              !- Template Thermostat Name
    TLB Occupation Schedule, !- System Availability Schedule Name
    30,                      !- Maximum Heating Supply Air Temperature {C}
    13,                      !- Minimum Cooling Supply Air Temperature {C}
    0.0156,                  !- Maximum Heating Supply Air Humidity Ratio {kgWater/kgDryAir}
    0.0077,                  !- Minimum Cooling Supply Air Humidity Ratio {kgWater/kgDryAir}
    NoLimit,                 !- Heating Limit
    ,                        !- Maximum Heating Air Flow Rate {m3/s}
    ,                        !- Maximum Sensible Heating Capacity {W}
    NoLimit,                 !- Cooling Limit
    ,                        !- Maximum Cooling Air Flow Rate {m3/s}
    ,                        !- Maximum Total Cooling Capacity {W}
    ,                        !- Heating Availability Schedule Name
    ,                        !- Cooling Availability Schedule Name
    ConstantSensibleHeatRatio,  !- Dehumidification Control Type
    0.7,                     !- Cooling Sensible Heat Ratio {dimensionless}
    60,                      !- Dehumidification Setpoint {percent}
    None,                    !- Humidification Control Type
    30,                      !- Humidification Setpoint {percent}
    None,                    !- Outdoor Air Method
    0.00944,                 !- Outdoor Air Flow Rate per Person {m3/s}
    ,                        !- Outdoor Air Flow Rate per Zone Floor Area {m3/s-m2}
    ,                        !- Outdoor Air Flow Rate per Zone {m3/s}
    ,                        !- Design Specification Outdoor Air Object Name
    None,                    !- Demand Controlled Ventilation Type
    NoEconomizer,            !- Outdoor Air Economizer Type
    None,                    !- Heat Recovery Type
    0.7,                     !- Sensible Heat Recovery Effectiveness {dimensionless}
    0.65;                    !- Latent Heat Recovery Effectiveness {dimensionless}

HVACTemplate:Zone:IdealLoadsAirSystem,
    APTO01_P3,               !- Zone Name
    Thermostat,              !- Template Thermostat Name
    TLB Occupation Schedule, !- System Availability Schedule Name
    30,                      !- Maximum Heating Supply Air Temperature {C}
    13,                      !- Minimum Cooling Supply Air Temperature {C}
    0.0156,                  !- Maximum Heating Supply Air Humidity Ratio {kgWater/kgDryAir}
    0.0077,                  !- Minimum Cooling Supply Air Humidity Ratio {kgWater/kgDryAir}
    NoLimit,                 !- Heating Limit
    ,                        !- Maximum Heating Air Flow Rate {m3/s}
    ,                        !- Maximum Sensible Heating Capacity {W}
    NoLimit,                 !- Cooling Limit
    ,                        !- Maximum Cooling Air Flow Rate {m3/s}
    ,                        !- Maximum Total Cooling Capacity {W}
    ,                        !- Heating Availability Schedule Name
    ,                        !- Cooling Availability Schedule Name
    ConstantSensibleHeatRatio,  !- Dehumidification Control Type
    0.7,                     !- Cooling Sensible Heat Ratio {dimensionless}
    60,                      !- Dehumidification Setpoint {percent}
    None,                    !- Humidification Control Type
    30,                      !- Humidification Setpoint {percent}
    None,                    !- Outdoor Air Method
    0.00944,                 !- Outdoor Air Flow Rate per Person {m3/s}
    ,                        !- Outdoor Air Flow Rate per Zone Floor Area {m3/s-m2}
    ,                        !- Outdoor Air Flow Rate per Zone {m3/s}
    ,                        !- Design Specification Outdoor Air Object Name
    None,                    !- Demand Controlled Ventilation Type
    NoEconomizer,            !- Outdoor Air Economizer Type
    None,                    !- Heat Recovery Type
    0.7,                     !- Sensible Heat Recovery Effectiveness {dimensionless}
    0.65;                    !- Latent Heat Recovery Effectiveness {dimensionless}

HVACTemplate:Zone:IdealLoadsAirSystem,
    APTO01_P4,               !- Zone Name
    Thermostat,              !- Template Thermostat Name
    TLB Occupation Schedule, !- System Availability Schedule Name
    30,                      !- Maximum Heating Supply Air Temperature {C}
    13,                      !- Minimum Cooling Supply Air Temperature {C}
    0.0156,                  !- Maximum Heating Supply Air Humidity Ratio {kgWater/kgDryAir}
    0.0077,                  !- Minimum Cooling Supply Air Humidity Ratio {kgWater/kgDryAir}
    NoLimit,                 !- Heating Limit
    ,                        !- Maximum Heating Air Flow Rate {m3/s}
    ,                        !- Maximum Sensible Heating Capacity {W}
    NoLimit,                 !- Cooling Limit
    ,                        !- Maximum Cooling Air Flow Rate {m3/s}
    ,                        !- Maximum Total Cooling Capacity {W}
    ,                        !- Heating Availability Schedule Name
    ,                        !- Cooling Availability Schedule Name
    ConstantSensibleHeatRatio,  !- Dehumidification Control Type
    0.7,                     !- Cooling Sensible Heat Ratio {dimensionless}
    60,                      !- Dehumidification Setpoint {percent}
    None,                    !- Humidification Control Type
    30,                      !- Humidification Setpoint {percent}
    None,                    !- Outdoor Air Method
    0.00944,                 !- Outdoor Air Flow Rate per Person {m3/s}
    ,                        !- Outdoor Air Flow Rate per Zone Floor Area {m3/s-m2}
    ,                        !- Outdoor Air Flow Rate per Zone {m3/s}
    ,                        !- Design Specification Outdoor Air Object Name
    None,                    !- Demand Controlled Ventilation Type
    NoEconomizer,            !- Outdoor Air Economizer Type
    None,                    !- Heat Recovery Type
    0.7,                     !- Sensible Heat Recovery Effectiveness {dimensionless}
    0.65;                    !- Latent Heat Recovery Effectiveness {dimensionless}

HVACTemplate:Zone:IdealLoadsAirSystem,
    APTO01_P5,               !- Zone Name
    Thermostat,              !- Template Thermostat Name
    TLB Occupation Schedule, !- System Availability Schedule Name
    30,                      !- Maximum Heating Supply Air Temperature {C}
    13,                      !- Minimum Cooling Supply Air Temperature {C}
    0.0156,                  !- Maximum Heating Supply Air Humidity Ratio {kgWater/kgDryAir}
    0.0077,                  !- Minimum Cooling Supply Air Humidity Ratio {kgWater/kgDryAir}
    NoLimit,                 !- Heating Limit
    ,                        !- Maximum Heating Air Flow Rate {m3/s}
    ,                        !- Maximum Sensible Heating Capacity {W}
    NoLimit,                 !- Cooling Limit
    ,                        !- Maximum Cooling Air Flow Rate {m3/s}
    ,                        !- Maximum Total Cooling Capacity {W}
    ,                        !- Heating Availability Schedule Name
    ,                        !- Cooling Availability Schedule Name
    ConstantSensibleHeatRatio,  !- Dehumidification Control Type
    0.7,                     !- Cooling Sensible Heat Ratio {dimensionless}
    60,                      !- Dehumidification Setpoint {percent}
    None,                    !- Humidification Control Type
    30,                      !- Humidification Setpoint {percent}
    None,                    !- Outdoor Air Method
    0.00944,                 !- Outdoor Air Flow Rate per Person {m3/s}
    ,                        !- Outdoor Air Flow Rate per Zone Floor Area {m3/s-m2}
    ,                        !- Outdoor Air Flow Rate per Zone {m3/s}
    ,                        !- Design Specification Outdoor Air Object Name
    None,                    !- Demand Controlled Ventilation Type
    NoEconomizer,            !- Outdoor Air Economizer Type
    None,                    !- Heat Recovery Type
    0.7,                     !- Sensible Heat Recovery Effectiveness {dimensionless}
    0.65;                    !- Latent Heat Recovery Effectiveness {dimensionless}

HVACTemplate:Zone:IdealLoadsAirSystem,
    APTO02_P1,               !- Zone Name
    Thermostat,              !- Template Thermostat Name
    TLB Occupation Schedule, !- System Availability Schedule Name
    30,                      !- Maximum Heating Supply Air Temperature {C}
    13,                      !- Minimum Cooling Supply Air Temperature {C}
    0.0156,                  !- Maximum Heating Supply Air Humidity Ratio {kgWater/kgDryAir}
    0.0077,                  !- Minimum Cooling Supply Air Humidity Ratio {kgWater/kgDryAir}
    NoLimit,                 !- Heating Limit
    ,                        !- Maximum Heating Air Flow Rate {m3/s}
    ,                        !- Maximum Sensible Heating Capacity {W}
    NoLimit,                 !- Cooling Limit
    ,                        !- Maximum Cooling Air Flow Rate {m3/s}
    ,                        !- Maximum Total Cooling Capacity {W}
    ,                        !- Heating Availability Schedule Name
    ,                        !- Cooling Availability Schedule Name
    ConstantSensibleHeatRatio,  !- Dehumidification Control Type
    0.7,                     !- Cooling Sensible Heat Ratio {dimensionless}
    60,                      !- Dehumidification Setpoint {percent}
    None,                    !- Humidification Control Type
    30,                      !- Humidification Setpoint {percent}
    None,                    !- Outdoor Air Method
    0.00944,                 !- Outdoor Air Flow Rate per Person {m3/s}
    ,                        !- Outdoor Air Flow Rate per Zone Floor Area {m3/s-m2}
    ,                        !- Outdoor Air Flow Rate per Zone {m3/s}
    ,                        !- Design Specification Outdoor Air Object Name
    None,                    !- Demand Controlled Ventilation Type
    NoEconomizer,            !- Outdoor Air Economizer Type
    None,                    !- Heat Recovery Type
    0.7,                     !- Sensible Heat Recovery Effectiveness {dimensionless}
    0.65;                    !- Latent Heat Recovery Effectiveness {dimensionless}

HVACTemplate:Zone:IdealLoadsAirSystem,
    APTO02_P2,               !- Zone Name
    Thermostat,              !- Template Thermostat Name
    TLB Occupation Schedule, !- System Availability Schedule Name
    30,                      !- Maximum Heating Supply Air Temperature {C}
    13,                      !- Minimum Cooling Supply Air Temperature {C}
    0.0156,                  !- Maximum Heating Supply Air Humidity Ratio {kgWater/kgDryAir}
    0.0077,                  !- Minimum Cooling Supply Air Humidity Ratio {kgWater/kgDryAir}
    NoLimit,                 !- Heating Limit
    ,                        !- Maximum Heating Air Flow Rate {m3/s}
    ,                        !- Maximum Sensible Heating Capacity {W}
    NoLimit,                 !- Cooling Limit
    ,                        !- Maximum Cooling Air Flow Rate {m3/s}
    ,                        !- Maximum Total Cooling Capacity {W}
    ,                        !- Heating Availability Schedule Name
    ,                        !- Cooling Availability Schedule Name
    ConstantSensibleHeatRatio,  !- Dehumidification Control Type
    0.7,                     !- Cooling Sensible Heat Ratio {dimensionless}
    60,                      !- Dehumidification Setpoint {percent}
    None,                    !- Humidification Control Type
    30,                      !- Humidification Setpoint {percent}
    None,                    !- Outdoor Air Method
    0.00944,                 !- Outdoor Air Flow Rate per Person {m3/s}
    ,                        !- Outdoor Air Flow Rate per Zone Floor Area {m3/s-m2}
    ,                        !- Outdoor Air Flow Rate per Zone {m3/s}
    ,                        !- Design Specification Outdoor Air Object Name
    None,                    !- Demand Controlled Ventilation Type
    NoEconomizer,            !- Outdoor Air Economizer Type
    None,                    !- Heat Recovery Type
    0.7,                     !- Sensible Heat Recovery Effectiveness {dimensionless}
    0.65;                    !- Latent Heat Recovery Effectiveness {dimensionless}

HVACTemplate:Zone:IdealLoadsAirSystem,
    APTO02_P3,               !- Zone Name
    Thermostat,              !- Template Thermostat Name
    TLB Occupation Schedule, !- System Availability Schedule Name
    30,                      !- Maximum Heating Supply Air Temperature {C}
    13,                      !- Minimum Cooling Supply Air Temperature {C}
    0.0156,                  !- Maximum Heating Supply Air Humidity Ratio {kgWater/kgDryAir}
    0.0077,                  !- Minimum Cooling Supply Air Humidity Ratio {kgWater/kgDryAir}
    NoLimit,                 !- Heating Limit
    ,                        !- Maximum Heating Air Flow Rate {m3/s}
    ,                        !- Maximum Sensible Heating Capacity {W}
    NoLimit,                 !- Cooling Limit
    ,                        !- Maximum Cooling Air Flow Rate {m3/s}
    ,                        !- Maximum Total Cooling Capacity {W}
    ,                        !- Heating Availability Schedule Name
    ,                        !- Cooling Availability Schedule Name
    ConstantSensibleHeatRatio,  !- Dehumidification Control Type
    0.7,                     !- Cooling Sensible Heat Ratio {dimensionless}
    60,                      !- Dehumidification Setpoint {percent}
    None,                    !- Humidification Control Type
    30,                      !- Humidification Setpoint {percent}
    None,                    !- Outdoor Air Method
    0.00944,                 !- Outdoor Air Flow Rate per Person {m3/s}
    ,                        !- Outdoor Air Flow Rate per Zone Floor Area {m3/s-m2}
    ,                        !- Outdoor Air Flow Rate per Zone {m3/s}
    ,                        !- Design Specification Outdoor Air Object Name
    None,                    !- Demand Controlled Ventilation Type
    NoEconomizer,            !- Outdoor Air Economizer Type
    None,                    !- Heat Recovery Type
    0.7,                     !- Sensible Heat Recovery Effectiveness {dimensionless}
    0.65;                    !- Latent Heat Recovery Effectiveness {dimensionless}

HVACTemplate:Zone:IdealLoadsAirSystem,
    APTO02_P4,               !- Zone Name
    Thermostat,              !- Template Thermostat Name
    TLB Occupation Schedule, !- System Availability Schedule Name
    30,                      !- Maximum Heating Supply Air Temperature {C}
    13,                      !- Minimum Cooling Supply Air Temperature {C}
    0.0156,                  !- Maximum Heating Supply Air Humidity Ratio {kgWater/kgDryAir}
    0.0077,                  !- Minimum Cooling Supply Air Humidity Ratio {kgWater/kgDryAir}
    NoLimit,                 !- Heating Limit
    ,                        !- Maximum Heating Air Flow Rate {m3/s}
    ,                        !- Maximum Sensible Heating Capacity {W}
    NoLimit,                 !- Cooling Limit
    ,                        !- Maximum Cooling Air Flow Rate {m3/s}
    ,                        !- Maximum Total Cooling Capacity {W}
    ,                        !- Heating Availability Schedule Name
    ,                        !- Cooling Availability Schedule Name
    ConstantSensibleHeatRatio,  !- Dehumidification Control Type
    0.7,                     !- Cooling Sensible Heat Ratio {dimensionless}
    60,                      !- Dehumidification Setpoint {percent}
    None,                    !- Humidification Control Type
    30,                      !- Humidification Setpoint {percent}
    None,                    !- Outdoor Air Method
    0.00944,                 !- Outdoor Air Flow Rate per Person {m3/s}
    ,                        !- Outdoor Air Flow Rate per Zone Floor Area {m3/s-m2}
    ,                        !- Outdoor Air Flow Rate per Zone {m3/s}
    ,                        !- Design Specification Outdoor Air Object Name
    None,                    !- Demand Controlled Ventilation Type
    NoEconomizer,            !- Outdoor Air Economizer Type
    None,                    !- Heat Recovery Type
    0.7,                     !- Sensible Heat Recovery Effectiveness {dimensionless}
    0.65;                    !- Latent Heat Recovery Effectiveness {dimensionless}

HVACTemplate:Zone:IdealLoadsAirSystem,
    APTO02_P5,               !- Zone Name
    Thermostat,              !- Template Thermostat Name
    TLB Occupation Schedule, !- System Availability Schedule Name
    30,                      !- Maximum Heating Supply Air Temperature {C}
    13,                      !- Minimum Cooling Supply Air Temperature {C}
    0.0156,                  !- Maximum Heating Supply Air Humidity Ratio {kgWater/kgDryAir}
    0.0077,                  !- Minimum Cooling Supply Air Humidity Ratio {kgWater/kgDryAir}
    NoLimit,                 !- Heating Limit
    ,                        !- Maximum Heating Air Flow Rate {m3/s}
    ,                        !- Maximum Sensible Heating Capacity {W}
    NoLimit,                 !- Cooling Limit
    ,                        !- Maximum Cooling Air Flow Rate {m3/s}
    ,                        !- Maximum Total Cooling Capacity {W}
    ,                        !- Heating Availability Schedule Name
    ,                        !- Cooling Availability Schedule Name
    ConstantSensibleHeatRatio,  !- Dehumidification Control Type
    0.7,                     !- Cooling Sensible Heat Ratio {dimensionless}
    60,                      !- Dehumidification Setpoint {percent}
    None,                    !- Humidification Control Type
    30,                      !- Humidification Setpoint {percent}
    None,                    !- Outdoor Air Method
    0.00944,                 !- Outdoor Air Flow Rate per Person {m3/s}
    ,                        !- Outdoor Air Flow Rate per Zone Floor Area {m3/s-m2}
    ,                        !- Outdoor Air Flow Rate per Zone {m3/s}
    ,                        !- Design Specification Outdoor Air Object Name
    None,                    !- Demand Controlled Ventilation Type
    NoEconomizer,            !- Outdoor Air Economizer Type
    None,                    !- Heat Recovery Type
    0.7,                     !- Sensible Heat Recovery Effectiveness {dimensionless}
    0.65;                    !- Latent Heat Recovery Effectiveness {dimensionless}

HVACTemplate:Zone:IdealLoadsAirSystem,
    APTO03_P1,               !- Zone Name
    Thermostat,              !- Template Thermostat Name
    TLB Occupation Schedule, !- System Availability Schedule Name
    30,                      !- Maximum Heating Supply Air Temperature {C}
    13,                      !- Minimum Cooling Supply Air Temperature {C}
    0.0156,                  !- Maximum Heating Supply Air Humidity Ratio {kgWater/kgDryAir}
    0.0077,                  !- Minimum Cooling Supply Air Humidity Ratio {kgWater/kgDryAir}
    NoLimit,                 !- Heating Limit
    ,                        !- Maximum Heating Air Flow Rate {m3/s}
    ,                        !- Maximum Sensible Heating Capacity {W}
    NoLimit,                 !- Cooling Limit
    ,                        !- Maximum Cooling Air Flow Rate {m3/s}
    ,                        !- Maximum Total Cooling Capacity {W}
    ,                        !- Heating Availability Schedule Name
    ,                        !- Cooling Availability Schedule Name
    ConstantSensibleHeatRatio,  !- Dehumidification Control Type
    0.7,                     !- Cooling Sensible Heat Ratio {dimensionless}
    60,                      !- Dehumidification Setpoint {percent}
    None,                    !- Humidification Control Type
    30,                      !- Humidification Setpoint {percent}
    None,                    !- Outdoor Air Method
    0.00944,                 !- Outdoor Air Flow Rate per Person {m3/s}
    ,                        !- Outdoor Air Flow Rate per Zone Floor Area {m3/s-m2}
    ,                        !- Outdoor Air Flow Rate per Zone {m3/s}
    ,                        !- Design Specification Outdoor Air Object Name
    None,                    !- Demand Controlled Ventilation Type
    NoEconomizer,            !- Outdoor Air Economizer Type
    None,                    !- Heat Recovery Type
    0.7,                     !- Sensible Heat Recovery Effectiveness {dimensionless}
    0.65;                    !- Latent Heat Recovery Effectiveness {dimensionless}

HVACTemplate:Zone:IdealLoadsAirSystem,
    APTO03_P2,               !- Zone Name
    Thermostat,              !- Template Thermostat Name
    TLB Occupation Schedule, !- System Availability Schedule Name
    30,                      !- Maximum Heating Supply Air Temperature {C}
    13,                      !- Minimum Cooling Supply Air Temperature {C}
    0.0156,                  !- Maximum Heating Supply Air Humidity Ratio {kgWater/kgDryAir}
    0.0077,                  !- Minimum Cooling Supply Air Humidity Ratio {kgWater/kgDryAir}
    NoLimit,                 !- Heating Limit
    ,                        !- Maximum Heating Air Flow Rate {m3/s}
    ,                        !- Maximum Sensible Heating Capacity {W}
    NoLimit,                 !- Cooling Limit
    ,                        !- Maximum Cooling Air Flow Rate {m3/s}
    ,                        !- Maximum Total Cooling Capacity {W}
    ,                        !- Heating Availability Schedule Name
    ,                        !- Cooling Availability Schedule Name
    ConstantSensibleHeatRatio,  !- Dehumidification Control Type
    0.7,                     !- Cooling Sensible Heat Ratio {dimensionless}
    60,                      !- Dehumidification Setpoint {percent}
    None,                    !- Humidification Control Type
    30,                      !- Humidification Setpoint {percent}
    None,                    !- Outdoor Air Method
    0.00944,                 !- Outdoor Air Flow Rate per Person {m3/s}
    ,                        !- Outdoor Air Flow Rate per Zone Floor Area {m3/s-m2}
    ,                        !- Outdoor Air Flow Rate per Zone {m3/s}
    ,                        !- Design Specification Outdoor Air Object Name
    None,                    !- Demand Controlled Ventilation Type
    NoEconomizer,            !- Outdoor Air Economizer Type
    None,                    !- Heat Recovery Type
    0.7,                     !- Sensible Heat Recovery Effectiveness {dimensionless}
    0.65;                    !- Latent Heat Recovery Effectiveness {dimensionless}

HVACTemplate:Zone:IdealLoadsAirSystem,
    APTO03_P3,               !- Zone Name
    Thermostat,              !- Template Thermostat Name
    TLB Occupation Schedule, !- System Availability Schedule Name
    30,                      !- Maximum Heating Supply Air Temperature {C}
    13,                      !- Minimum Cooling Supply Air Temperature {C}
    0.0156,                  !- Maximum Heating Supply Air Humidity Ratio {kgWater/kgDryAir}
    0.0077,                  !- Minimum Cooling Supply Air Humidity Ratio {kgWater/kgDryAir}
    NoLimit,                 !- Heating Limit
    ,                        !- Maximum Heating Air Flow Rate {m3/s}
    ,                        !- Maximum Sensible Heating Capacity {W}
    NoLimit,                 !- Cooling Limit
    ,                        !- Maximum Cooling Air Flow Rate {m3/s}
    ,                        !- Maximum Total Cooling Capacity {W}
    ,                        !- Heating Availability Schedule Name
    ,                        !- Cooling Availability Schedule Name
    ConstantSensibleHeatRatio,  !- Dehumidification Control Type
    0.7,                     !- Cooling Sensible Heat Ratio {dimensionless}
    60,                      !- Dehumidification Setpoint {percent}
    None,                    !- Humidification Control Type
    30,                      !- Humidification Setpoint {percent}
    None,                    !- Outdoor Air Method
    0.00944,                 !- Outdoor Air Flow Rate per Person {m3/s}
    ,                        !- Outdoor Air Flow Rate per Zone Floor Area {m3/s-m2}
    ,                        !- Outdoor Air Flow Rate per Zone {m3/s}
    ,                        !- Design Specification Outdoor Air Object Name
    None,                    !- Demand Controlled Ventilation Type
    NoEconomizer,            !- Outdoor Air Economizer Type
    None,                    !- Heat Recovery Type
    0.7,                     !- Sensible Heat Recovery Effectiveness {dimensionless}
    0.65;                    !- Latent Heat Recovery Effectiveness {dimensionless}

HVACTemplate:Zone:IdealLoadsAirSystem,
    APTO03_P4,               !- Zone Name
    Thermostat,              !- Template Thermostat Name
    TLB Occupation Schedule, !- System Availability Schedule Name
    30,                      !- Maximum Heating Supply Air Temperature {C}
    13,                      !- Minimum Cooling Supply Air Temperature {C}
    0.0156,                  !- Maximum Heating Supply Air Humidity Ratio {kgWater/kgDryAir}
    0.0077,                  !- Minimum Cooling Supply Air Humidity Ratio {kgWater/kgDryAir}
    NoLimit,                 !- Heating Limit
    ,                        !- Maximum Heating Air Flow Rate {m3/s}
    ,                        !- Maximum Sensible Heating Capacity {W}
    NoLimit,                 !- Cooling Limit
    ,                        !- Maximum Cooling Air Flow Rate {m3/s}
    ,                        !- Maximum Total Cooling Capacity {W}
    ,                        !- Heating Availability Schedule Name
    ,                        !- Cooling Availability Schedule Name
    ConstantSensibleHeatRatio,  !- Dehumidification Control Type
    0.7,                     !- Cooling Sensible Heat Ratio {dimensionless}
    60,                      !- Dehumidification Setpoint {percent}
    None,                    !- Humidification Control Type
    30,                      !- Humidification Setpoint {percent}
    None,                    !- Outdoor Air Method
    0.00944,                 !- Outdoor Air Flow Rate per Person {m3/s}
    ,                        !- Outdoor Air Flow Rate per Zone Floor Area {m3/s-m2}
    ,                        !- Outdoor Air Flow Rate per Zone {m3/s}
    ,                        !- Design Specification Outdoor Air Object Name
    None,                    !- Demand Controlled Ventilation Type
    NoEconomizer,            !- Outdoor Air Economizer Type
    None,                    !- Heat Recovery Type
    0.7,                     !- Sensible Heat Recovery Effectiveness {dimensionless}
    0.65;                    !- Latent Heat Recovery Effectiveness {dimensionless}

HVACTemplate:Zone:IdealLoadsAirSystem,
    APTO03_P5,               !- Zone Name
    Thermostat,              !- Template Thermostat Name
    TLB Occupation Schedule, !- System Availability Schedule Name
    30,                      !- Maximum Heating Supply Air Temperature {C}
    13,                      !- Minimum Cooling Supply Air Temperature {C}
    0.0156,                  !- Maximum Heating Supply Air Humidity Ratio {kgWater/kgDryAir}
    0.0077,                  !- Minimum Cooling Supply Air Humidity Ratio {kgWater/kgDryAir}
    NoLimit,                 !- Heating Limit
    ,                        !- Maximum Heating Air Flow Rate {m3/s}
    ,                        !- Maximum Sensible Heating Capacity {W}
    NoLimit,                 !- Cooling Limit
    ,                        !- Maximum Cooling Air Flow Rate {m3/s}
    ,                        !- Maximum Total Cooling Capacity {W}
    ,                        !- Heating Availability Schedule Name
    ,                        !- Cooling Availability Schedule Name
    ConstantSensibleHeatRatio,  !- Dehumidification Control Type
    0.7,                     !- Cooling Sensible Heat Ratio {dimensionless}
    60,                      !- Dehumidification Setpoint {percent}
    None,                    !- Humidification Control Type
    30,                      !- Humidification Setpoint {percent}
    None,                    !- Outdoor Air Method
    0.00944,                 !- Outdoor Air Flow Rate per Person {m3/s}
    ,                        !- Outdoor Air Flow Rate per Zone Floor Area {m3/s-m2}
    ,                        !- Outdoor Air Flow Rate per Zone {m3/s}
    ,                        !- Design Specification Outdoor Air Object Name
    None,                    !- Demand Controlled Ventilation Type
    NoEconomizer,            !- Outdoor Air Economizer Type
    None,                    !- Heat Recovery Type
    0.7,                     !- Sensible Heat Recovery Effectiveness {dimensionless}
    0.65;                    !- Latent Heat Recovery Effectiveness {dimensionless}

HVACTemplate:Zone:IdealLoadsAirSystem,
    APTO04_P1,               !- Zone Name
    Thermostat,              !- Template Thermostat Name
    TLB Occupation Schedule, !- System Availability Schedule Name
    30,                      !- Maximum Heating Supply Air Temperature {C}
    13,                      !- Minimum Cooling Supply Air Temperature {C}
    0.0156,                  !- Maximum Heating Supply Air Humidity Ratio {kgWater/kgDryAir}
    0.0077,                  !- Minimum Cooling Supply Air Humidity Ratio {kgWater/kgDryAir}
    NoLimit,                 !- Heating Limit
    ,                        !- Maximum Heating Air Flow Rate {m3/s}
    ,                        !- Maximum Sensible Heating Capacity {W}
    NoLimit,                 !- Cooling Limit
    ,                        !- Maximum Cooling Air Flow Rate {m3/s}
    ,                        !- Maximum Total Cooling Capacity {W}
    ,                        !- Heating Availability Schedule Name
    ,                        !- Cooling Availability Schedule Name
    ConstantSensibleHeatRatio,  !- Dehumidification Control Type
    0.7,                     !- Cooling Sensible Heat Ratio {dimensionless}
    60,                      !- Dehumidification Setpoint {percent}
    None,                    !- Humidification Control Type
    30,                      !- Humidification Setpoint {percent}
    None,                    !- Outdoor Air Method
    0.00944,                 !- Outdoor Air Flow Rate per Person {m3/s}
    ,                        !- Outdoor Air Flow Rate per Zone Floor Area {m3/s-m2}
    ,                        !- Outdoor Air Flow Rate per Zone {m3/s}
    ,                        !- Design Specification Outdoor Air Object Name
    None,                    !- Demand Controlled Ventilation Type
    NoEconomizer,            !- Outdoor Air Economizer Type
    None,                    !- Heat Recovery Type
    0.7,                     !- Sensible Heat Recovery Effectiveness {dimensionless}
    0.65;                    !- Latent Heat Recovery Effectiveness {dimensionless}

HVACTemplate:Zone:IdealLoadsAirSystem,
    APTO04_P2,               !- Zone Name
    Thermostat,              !- Template Thermostat Name
    TLB Occupation Schedule, !- System Availability Schedule Name
    30,                      !- Maximum Heating Supply Air Temperature {C}
    13,                      !- Minimum Cooling Supply Air Temperature {C}
    0.0156,                  !- Maximum Heating Supply Air Humidity Ratio {kgWater/kgDryAir}
    0.0077,                  !- Minimum Cooling Supply Air Humidity Ratio {kgWater/kgDryAir}
    NoLimit,                 !- Heating Limit
    ,                        !- Maximum Heating Air Flow Rate {m3/s}
    ,                        !- Maximum Sensible Heating Capacity {W}
    NoLimit,                 !- Cooling Limit
    ,                        !- Maximum Cooling Air Flow Rate {m3/s}
    ,                        !- Maximum Total Cooling Capacity {W}
    ,                        !- Heating Availability Schedule Name
    ,                        !- Cooling Availability Schedule Name
    ConstantSensibleHeatRatio,  !- Dehumidification Control Type
    0.7,                     !- Cooling Sensible Heat Ratio {dimensionless}
    60,                      !- Dehumidification Setpoint {percent}
    None,                    !- Humidification Control Type
    30,                      !- Humidification Setpoint {percent}
    None,                    !- Outdoor Air Method
    0.00944,                 !- Outdoor Air Flow Rate per Person {m3/s}
    ,                        !- Outdoor Air Flow Rate per Zone Floor Area {m3/s-m2}
    ,                        !- Outdoor Air Flow Rate per Zone {m3/s}
    ,                        !- Design Specification Outdoor Air Object Name
    None,                    !- Demand Controlled Ventilation Type
    NoEconomizer,            !- Outdoor Air Economizer Type
    None,                    !- Heat Recovery Type
    0.7,                     !- Sensible Heat Recovery Effectiveness {dimensionless}
    0.65;                    !- Latent Heat Recovery Effectiveness {dimensionless}

HVACTemplate:Zone:IdealLoadsAirSystem,
    APTO04_P3,               !- Zone Name
    Thermostat,              !- Template Thermostat Name
    TLB Occupation Schedule, !- System Availability Schedule Name
    30,                      !- Maximum Heating Supply Air Temperature {C}
    13,                      !- Minimum Cooling Supply Air Temperature {C}
    0.0156,                  !- Maximum Heating Supply Air Humidity Ratio {kgWater/kgDryAir}
    0.0077,                  !- Minimum Cooling Supply Air Humidity Ratio {kgWater/kgDryAir}
    NoLimit,                 !- Heating Limit
    ,                        !- Maximum Heating Air Flow Rate {m3/s}
    ,                        !- Maximum Sensible Heating Capacity {W}
    NoLimit,                 !- Cooling Limit
    ,                        !- Maximum Cooling Air Flow Rate {m3/s}
    ,                        !- Maximum Total Cooling Capacity {W}
    ,                        !- Heating Availability Schedule Name
    ,                        !- Cooling Availability Schedule Name
    ConstantSensibleHeatRatio,  !- Dehumidification Control Type
    0.7,                     !- Cooling Sensible Heat Ratio {dimensionless}
    60,                      !- Dehumidification Setpoint {percent}
    None,                    !- Humidification Control Type
    30,                      !- Humidification Setpoint {percent}
    None,                    !- Outdoor Air Method
    0.00944,                 !- Outdoor Air Flow Rate per Person {m3/s}
    ,                        !- Outdoor Air Flow Rate per Zone Floor Area {m3/s-m2}
    ,                        !- Outdoor Air Flow Rate per Zone {m3/s}
    ,                        !- Design Specification Outdoor Air Object Name
    None,                    !- Demand Controlled Ventilation Type
    NoEconomizer,            !- Outdoor Air Economizer Type
    None,                    !- Heat Recovery Type
    0.7,                     !- Sensible Heat Recovery Effectiveness {dimensionless}
    0.65;                    !- Latent Heat Recovery Effectiveness {dimensionless}

HVACTemplate:Zone:IdealLoadsAirSystem,
    APTO04_P4,               !- Zone Name
    Thermostat,              !- Template Thermostat Name
    TLB Occupation Schedule, !- System Availability Schedule Name
    30,                      !- Maximum Heating Supply Air Temperature {C}
    13,                      !- Minimum Cooling Supply Air Temperature {C}
    0.0156,                  !- Maximum Heating Supply Air Humidity Ratio {kgWater/kgDryAir}
    0.0077,                  !- Minimum Cooling Supply Air Humidity Ratio {kgWater/kgDryAir}
    NoLimit,                 !- Heating Limit
    ,                        !- Maximum Heating Air Flow Rate {m3/s}
    ,                        !- Maximum Sensible Heating Capacity {W}
    NoLimit,                 !- Cooling Limit
    ,                        !- Maximum Cooling Air Flow Rate {m3/s}
    ,                        !- Maximum Total Cooling Capacity {W}
    ,                        !- Heating Availability Schedule Name
    ,                        !- Cooling Availability Schedule Name
    ConstantSensibleHeatRatio,  !- Dehumidification Control Type
    0.7,                     !- Cooling Sensible Heat Ratio {dimensionless}
    60,                      !- Dehumidification Setpoint {percent}
    None,                    !- Humidification Control Type
    30,                      !- Humidification Setpoint {percent}
    None,                    !- Outdoor Air Method
    0.00944,                 !- Outdoor Air Flow Rate per Person {m3/s}
    ,                        !- Outdoor Air Flow Rate per Zone Floor Area {m3/s-m2}
    ,                        !- Outdoor Air Flow Rate per Zone {m3/s}
    ,                        !- Design Specification Outdoor Air Object Name
    None,                    !- Demand Controlled Ventilation Type
    NoEconomizer,            !- Outdoor Air Economizer Type
    None,                    !- Heat Recovery Type
    0.7,                     !- Sensible Heat Recovery Effectiveness {dimensionless}
    0.65;                    !- Latent Heat Recovery Effectiveness {dimensionless}

HVACTemplate:Zone:IdealLoadsAirSystem,
    APTO04_P5,               !- Zone Name
    Thermostat,              !- Template Thermostat Name
    TLB Occupation Schedule, !- System Availability Schedule Name
    30,                      !- Maximum Heating Supply Air Temperature {C}
    13,                      !- Minimum Cooling Supply Air Temperature {C}
    0.0156,                  !- Maximum Heating Supply Air Humidity Ratio {kgWater/kgDryAir}
    0.0077,                  !- Minimum Cooling Supply Air Humidity Ratio {kgWater/kgDryAir}
    NoLimit,                 !- Heating Limit
    ,                        !- Maximum Heating Air Flow Rate {m3/s}
    ,                        !- Maximum Sensible Heating Capacity {W}
    NoLimit,                 !- Cooling Limit
    ,                        !- Maximum Cooling Air Flow Rate {m3/s}
    ,                        !- Maximum Total Cooling Capacity {W}
    ,                        !- Heating Availability Schedule Name
    ,                        !- Cooling Availability Schedule Name
    ConstantSensibleHeatRatio,  !- Dehumidification Control Type
    0.7,                     !- Cooling Sensible Heat Ratio {dimensionless}
    60,                      !- Dehumidification Setpoint {percent}
    None,                    !- Humidification Control Type
    30,                      !- Humidification Setpoint {percent}
    None,                    !- Outdoor Air Method
    0.00944,                 !- Outdoor Air Flow Rate per Person {m3/s}
    ,                        !- Outdoor Air Flow Rate per Zone Floor Area {m3/s-m2}
    ,                        !- Outdoor Air Flow Rate per Zone {m3/s}
    ,                        !- Design Specification Outdoor Air Object Name
    None,                    !- Demand Controlled Ventilation Type
    NoEconomizer,            !- Outdoor Air Economizer Type
    None,                    !- Heat Recovery Type
    0.7,                     !- Sensible Heat Recovery Effectiveness {dimensionless}
    0.65;                    !- Latent Heat Recovery Effectiveness {dimensionless}


!-   ===========  ALL OBJECTS IN CLASS: OUTPUT:VARIABLEDICTIONARY ===========

Output:VariableDictionary,
    IDF;                     !- Key Field


!-   ===========  ALL OBJECTS IN CLASS: OUTPUT:TABLE:SUMMARYREPORTS ===========

Output:Table:SummaryReports,
    AllSummary;              !- Report 1 Name


!-   ===========  ALL OBJECTS IN CLASS: OUTPUTCONTROL:TABLE:STYLE ===========

OutputControl:Table:Style,
    CommaAndHTML,            !- Column Separator
    JtoKWH;                  !- Unit Conversion


!-   ===========  ALL OBJECTS IN CLASS: OUTPUT:VARIABLE ===========

Output:Variable,
    *,                       !- Key Value
    Zone Ideal Loads Zone Total Heating Energy,  !- Variable Name
    Monthly;                 !- Reporting Frequency

Output:Variable,
    *,                       !- Key Value
    Zone Ideal Loads Zone Total Cooling Energy,  !- Variable Name
    Monthly;                 !- Reporting Frequency


!-   ===========  ALL OBJECTS IN CLASS: OUTPUT:METER ===========

Output:Meter,
    DistrictCooling:HVAC,    !- Key Name
    Monthly;                 !- Reporting Frequency

Output:Meter,
    DistrictHeating:HVAC,    !- Key Name
    Monthly;                 !- Reporting Frequency

